 vasp.5.4.4.18Apr17-6-g9f103f2a35 (build Oct 28 2020 13:00:36) gamma-only

 executed on             LinuxIFC date 2020.12.03  21:33:07

 INCAR:
 POTCAR:    PAW_PBE C 08Apr2002
 POTCAR:    PAW_PBE Cr 06Sep2000
 POTCAR:    PAW_PBE H 15Jun2001
 POTCAR:    PAW_PBE Mo 08Apr2002
 POTCAR:    PAW_PBE S 06Sep2000
 POTCAR:    PAW_PBE C 08Apr2002
   VRHFIN =C: s2p2

   TITEL  = PAW_PBE C 08Apr2002
   POMASS =   12.011; ZVAL   =    4.000    mass and valenz
   ENMAX  =  400.000; ENMIN  =  300.000 eV

 POTCAR:    PAW_PBE Cr 06Sep2000
   VRHFIN =Cr : d5 s1

   TITEL  = PAW_PBE Cr 06Sep2000
   POMASS =   51.996; ZVAL   =    6.000    mass and valenz
   ENMAX  =  227.080; ENMIN  =  170.310 eV

 POTCAR:    PAW_PBE H 15Jun2001
   VRHFIN =H: ultrasoft test

   TITEL  = PAW_PBE H 15Jun2001
   POMASS =    1.000; ZVAL   =    1.000    mass and valenz
   ENMAX  =  250.000; ENMIN  =  200.000 eV

 POTCAR:    PAW_PBE Mo 08Apr2002
   VRHFIN =Mo: 4p5s4d

   TITEL  = PAW_PBE Mo 08Apr2002
   POMASS =   95.940; ZVAL   =    6.000    mass and valenz
   ENMAX  =  224.584; ENMIN  =  168.438 eV

 POTCAR:    PAW_PBE S 06Sep2000
   VRHFIN =S : s2p4

   TITEL  = PAW_PBE S 06Sep2000
   POMASS =   32.066; ZVAL   =    6.000    mass and valenz
   ENMAX  =  258.689; ENMIN  =  194.016 eV

 Optimization of the real space projectors (new method)

 maximal supplied QI-value         = 25.13
 optimisation between [QCUT,QGAM] = [ 10.05, 20.36] = [ 28.30,116.06] Ry
 Optimized for a Real-space Cutoff    1.51 Angstroem

   l    n(q)    QCUT    max X(q) W(low)/X(q) W(high)/X(q)  e(spline)
   0      9    10.053   115.676    0.19E-03    0.21E-03    0.38E-06
   0      9    10.053    87.132    0.19E-03    0.21E-03    0.38E-06
   1      9    10.053     4.429    0.87E-04    0.11E-03    0.39E-06
   1      9    10.053     2.733    0.59E-04    0.62E-04    0.43E-06
 Optimization of the real space projectors (new method)

[...]

   l    n(q)    QCUT    max X(q) W(low)/X(q) W(high)/X(q)  e(spline)
   2      9    10.205    80.908    0.21E-03    0.30E-03    0.60E-06
   2      9    10.205    79.000    0.21E-03    0.30E-03    0.60E-06
   0     10    10.205    52.066    0.39E-04    0.38E-04    0.19E-06
   0     10    10.205    24.514    0.33E-04    0.32E-04    0.16E-06
   1     10    10.205    16.033    0.64E-04    0.17E-03    0.19E-06
   1     10    10.205    11.179    0.49E-04    0.13E-03    0.15E-06
 Optimization of the real space projectors (new method)

 maximal supplied QI-value         = 19.84
 optimisation between [QCUT,QGAM] = [ 10.12, 20.44] = [ 28.68,116.96] Ry
 Optimized for a Real-space Cutoff    1.42 Angstroem

   l    n(q)    QCUT    max X(q) W(low)/X(q) W(high)/X(q)  e(spline)
   0      9    10.119   187.594    0.52E-04    0.93E-04    0.64E-07
   0      9    10.119   164.243    0.51E-04    0.92E-04    0.63E-07
   1      8    10.119    67.533    0.16E-03    0.17E-03    0.23E-06
   1      8    10.119    50.729    0.16E-03    0.16E-03    0.23E-06
  PAW_PBE C 08Apr2002                   :
  PAW_PBE Cr 06Sep2000                  :
  PAW_PBE H 15Jun2001                   :
  PAW_PBE Mo 08Apr2002                  :
  PAW_PBE S 06Sep2000                   :

 POSCAR:  C Cr  H Mo  S
  positions in cartesian coordinates
 exchange correlation table for  LEXCH =        8
   RHO(1)=    0.500       N(1)  =     2000
   RHO(2)=  100.500       N(2)  =     4000

 ion  position               nearest neighbor table
   1  0.481  0.351  0.386-  18 1.09   2 1.42   3 1.43  11 2.20
   2  0.419  0.280  0.415-  17 1.09   1 1.42   5 1.43  11 2.18
   3  0.569  0.418  0.406-  19 1.09   1 1.43   4 1.44  11 2.15
   4  0.562  0.389  0.449-  20 1.09   3 1.44   5 1.44  11 2.09
   5  0.468  0.303  0.454-  12 1.09   2 1.43   4 1.44  11 2.11
   6  0.331  0.443  0.435-  14 1.09  10 1.44   8 1.44  11 2.11
   7  0.445  0.507  0.488-  15 1.09   9 1.43   8 1.44  11 2.15
   8  0.351  0.428  0.477-  13 1.09   7 1.44   6 1.44  11 2.10
   9  0.482  0.570  0.453-  16 1.09  10 1.42   7 1.43  11 2.20
  10  0.413  0.531  0.421-  21 1.09   9 1.42   6 1.44  11 2.18
  11  0.453  0.423  0.438-   4 2.09   8 2.10   5 2.11   6 2.11   3 2.15   7 2.15  10 2.18   2 2.18
                             1 2.20   9 2.20
  12  0.439  0.262  0.483-   5 1.09
  13  0.302  0.369  0.498-   8 1.09
  14  0.265  0.397  0.418-   6 1.09
  15  0.482  0.517  0.517-   7 1.09
  16  0.554  0.635  0.451-   9 1.09
  17  0.346  0.222  0.409-   2 1.09
  18  0.463  0.355  0.354-   1 1.09
  19  0.631  0.481  0.392-   3 1.09
  20  0.618  0.423  0.472-   4 1.09
  21  0.422  0.562  0.390-  10 1.09
  22  0.600  0.600  0.657-  97 2.43 148 2.43 144 2.43  98 2.43 149 2.43 145 2.43  56 3.18  27 3.18
                            61 3.18  44 3.18  38 3.18  47 3.18
  23  0.200  0.800  0.219- 126 2.43 162 2.43 121 2.43 139 2.43 163 2.43 122 2.43  26 3.18  49 3.18
                            51 3.18  64 3.18  54 3.18  70 3.18
  24  0.200  0.600  0.657- 164 2.43 127 2.43 123 2.43 128 2.43 165 2.43 124 2.43  46 3.18  33 3.18
                            47 3.18  63 3.18  34 3.18  66 3.18
  25  0.600  0.800  0.219-  92 2.43 146 2.43 112 2.43  94 2.43 147 2.43 143 2.43  35 3.18  58 3.18
                            29 3.18  36 3.18  50 3.18  49 3.18
  26  0.200  0.600  0.219- 166 2.43 129 2.43 126 2.43 130 2.43 167 2.43 139 2.43  49 3.18  36 3.18
                            23 3.18  62 3.18  28 3.18  64 3.18
  27  0.600  0.800  0.657-  96 2.43 144 2.43 110 2.43  93 2.43 145 2.43 170 2.43  22 3.18  56 3.18
                            31 3.18  47 3.18  48 3.18  46 3.18
  28  0.200  0.400  0.219- 133 2.43 142 2.43 129 2.43 141 2.43 134 2.43 130 2.43  32 3.18  42 3.18
                            36 3.18  59 3.18  26 3.18  62 3.18
  29  0.800  0.000  0.219-  72 2.43  84 2.43  92 2.43  94 2.43 108 2.43  86 2.43  50 3.18  25 3.18
                            59 3.18  58 3.18  52 3.18  55 3.18
  30  0.200  0.200  0.657- 140 2.43 135 2.43 131 2.43 136 2.43 125 2.43 132 2.43  44 3.18  41 3.18
                            34 3.18  57 3.18  53 3.18  60 3.18
  31  0.800  0.000  0.657-  80 2.43  85 2.43  96 2.43  93 2.43  82 2.43  81 2.43  48 3.18  27 3.18
                            60 3.18  56 3.18  71 3.18  57 3.18
  32  0.200  0.200  0.219- 113 2.43 137 2.43 133 2.43 114 2.43 138 2.43 134 2.43  42 3.18  39 3.18
                            28 3.18  55 3.18  54 3.18  59 3.18
  33  0.200  0.800  0.657- 123 2.43 160 2.43 119 2.43 124 2.43 161 2.43 120 2.43  24 3.18  46 3.18
                            37 3.18  66 3.18  53 3.18  69 3.18
  34  0.200  0.400  0.657- 131 2.43 168 2.43 127 2.43 132 2.43 169 2.43 128 2.43  30 3.18  44 3.18
                            47 3.18  60 3.18  24 3.18  63 3.18
  35  0.600  0.600  0.219- 100 2.43 150 2.43 146 2.43 102 2.43 151 2.43 147 2.43  58 3.18  25 3.18
                            67 3.18  42 3.18  40 3.18  36 3.18
  36  0.400  0.600  0.219- 166 2.43 146 2.43 142 2.43 167 2.43 141 2.43 147 2.43  26 3.18  49 3.18
                            28 3.18  25 3.18  42 3.18  35 3.18
  37  0.400  0.000  0.657- 115 2.43 156 2.43 160 2.43 111 2.43 161 2.43 116 2.43  53 3.18  33 3.18
                            43 3.18  46 3.18  41 3.18  48 3.18
  38  0.600  0.400  0.657- 105 2.43 152 2.43 148 2.43 106 2.43 153 2.43 149 2.43  43 3.18  65 3.18
                            61 3.18  41 3.18  22 3.18  44 3.18
  39  0.400  0.200  0.219- 113 2.43 154 2.43 117 2.43 114 2.43 118 2.43 155 2.43  32 3.18  42 3.18
                            54 3.18  40 3.18  51 3.18  45 3.18
  40  0.600  0.400  0.219-  91 2.43 154 2.43 150 2.43  90 2.43 155 2.43 151 2.43  45 3.18  68 3.18
                            67 3.18  39 3.18  35 3.18  42 3.18
  41  0.400  0.200  0.657- 140 2.43 152 2.43 115 2.43 125 2.43 116 2.43 153 2.43  30 3.18  44 3.18
                            53 3.18  38 3.18  37 3.18  43 3.18
  42  0.400  0.400  0.219- 113 2.43 142 2.43 150 2.43 114 2.43 151 2.43 141 2.43  32 3.18  28 3.18
                            39 3.18  35 3.18  36 3.18  40 3.18
  43  0.600  0.200  0.657-  73 2.43 156 2.43 152 2.43  74 2.43 111 2.43 153 2.43  65 3.18  38 3.18
                            71 3.18  37 3.18  48 3.18  41 3.18
  44  0.400  0.400  0.657- 140 2.43 148 2.43 168 2.43 149 2.43 125 2.43 169 2.43  30 3.18  34 3.18
                            41 3.18  22 3.18  47 3.18  38 3.18
  45  0.600  0.200  0.219-  77 2.43 158 2.43 154 2.43  78 2.43 159 2.43 155 2.43  68 3.18  52 3.18
                            40 3.18  51 3.18  50 3.18  39 3.18
  46  0.400  0.800  0.657- 110 2.43 160 2.43 164 2.43 165 2.43 170 2.43 161 2.43  24 3.18  33 3.18
                            47 3.18  48 3.18  37 3.18  27 3.18
  47  0.400  0.600  0.657- 164 2.43 144 2.43 168 2.43 165 2.43 145 2.43 169 2.43  24 3.18  46 3.18
                            34 3.18  27 3.18  44 3.18  22 3.18
  48  0.600  0.000  0.657-  80 2.43 110 2.43 156 2.43  81 2.43 170 2.43 111 2.43  31 3.18  71 3.18
                            46 3.18  27 3.18  43 3.18  37 3.18
  49  0.400  0.800  0.219- 112 2.43 162 2.43 166 2.43 143 2.43 167 2.43 163 2.43  26 3.18  23 3.18
                            36 3.18  50 3.18  51 3.18  25 3.18
  50  0.600  0.000  0.219-  84 2.43 112 2.43 158 2.43 143 2.43  86 2.43 159 2.43  29 3.18  52 3.18
                            49 3.18  25 3.18  45 3.18  51 3.18
  51  0.400  0.000  0.219- 117 2.43 158 2.43 162 2.43 159 2.43 163 2.43 118 2.43  54 3.18  23 3.18
                            45 3.18  49 3.18  39 3.18  50 3.18
  52  0.800  0.200  0.219-  77 2.43  87 2.43  84 2.43  78 2.43  86 2.43 104 2.43  45 3.18  68 3.18
                            50 3.18  62 3.18  29 3.18  59 3.18
  53  0.200  0.000  0.657- 115 2.43 119 2.43 135 2.43 120 2.43 116 2.43 136 2.43  37 3.18  41 3.18
                            69 3.18  33 3.18  30 3.18  57 3.18
  54  0.200  0.000  0.219- 117 2.43 121 2.43 137 2.43 122 2.43 118 2.43 138 2.43  51 3.18  39 3.18
                            70 3.18  32 3.18  23 3.18  55 3.18
  55  0.000  0.000  0.219-  83 2.43 137 2.43  72 2.43  89 2.43 138 2.43 108 2.43  32 3.18  58 3.18
                            59 3.18  70 3.18  54 3.18  29 3.18
  56  0.800  0.800  0.657-  96 2.43  97 2.43 171 2.43  98 2.43  93 2.43 157 2.43  22 3.18  27 3.18
                            61 3.18  57 3.18  31 3.18  69 3.18
  57  0.000  0.000  0.657- 135 2.43 171 2.43  85 2.43 157 2.43 136 2.43  82 2.43  30 3.18  56 3.18
                            60 3.18  69 3.18  53 3.18  31 3.18
  58  0.800  0.800  0.219-  92 2.43 100 2.43  83 2.43 102 2.43  94 2.43  89 2.43  35 3.18  25 3.18
                            67 3.18  55 3.18  29 3.18  70 3.18
  59  0.000  0.200  0.219- 133 2.43  72 2.43  87 2.43 108 2.43 134 2.43 104 2.43  62 3.18  28 3.18
                            29 3.18  55 3.18  32 3.18  52 3.18
  60  0.000  0.200  0.657- 131 2.43  85 2.43 103 2.43  82 2.43 132 2.43  88 2.43  63 3.18  34 3.18
                            31 3.18  57 3.18  30 3.18  71 3.18
  61  0.800  0.600  0.657-  97 2.43 105 2.43  76 2.43  98 2.43 106 2.43  75 2.43  22 3.18  56 3.18
                            38 3.18  69 3.18  65 3.18  66 3.18
  62  0.000  0.400  0.219-  87 2.43  95 2.43 129 2.43 104 2.43 130 2.43  79 2.43  59 3.18  52 3.18
                            26 3.18  64 3.18  28 3.18  68 3.18
[...]

 FORCES acting on ions
    electron-ion (+dipol)            ewald-force                    non-local-force                 convergence-correction
   -.375E+02 0.654E+02 0.120E+03   0.395E+02 -.673E+02 -.123E+03   -.203E+01 0.186E+01 0.347E+01   0.161E-01 -.181E-01 -.399E-01
   0.436E+02 0.256E+03 0.178E+02   -.425E+02 -.260E+03 -.190E+02   -.998E+00 0.405E+01 0.124E+01   0.693E-02 -.429E-01 -.163E-01
   -.207E+03 -.111E+03 0.489E+02   0.211E+03 0.111E+03 -.508E+02   -.381E+01 -.378E+00 0.187E+01   0.405E-01 0.240E-02 -.247E-01
   -.236E+03 -.290E+02 -.993E+02   0.240E+03 0.286E+02 0.101E+03   -.399E+01 0.389E+00 -.141E+01   0.457E-01 -.837E-02 0.120E-01
   -.785E+02 0.201E+03 -.119E+03   0.806E+02 -.204E+03 0.121E+03   -.213E+01 0.327E+01 -.181E+01   0.237E-01 -.377E-01 0.164E-01
   0.250E+03 0.653E+02 0.736E+02   -.254E+03 -.655E+02 -.740E+02   0.421E+01 0.172E+00 0.477E+00   -.477E-01 0.385E-02 -.594E-02
   -.381E+01 -.107E+03 -.114E+03   0.251E+01 0.109E+03 0.117E+03   0.129E+01 -.204E+01 -.369E+01   -.113E-01 0.236E-01 0.386E-01
   0.170E+03 0.103E+03 -.775E+02   -.173E+03 -.104E+03 0.802E+02   0.317E+01 0.708E+00 -.278E+01   -.362E-01 -.227E-02 0.318E-01
   -.266E+02 -.270E+03 0.128E+02   0.252E+02 0.274E+03 -.118E+02   0.136E+01 -.402E+01 -.103E+01   -.884E-02 0.440E-01 0.850E-02
   0.127E+03 -.165E+03 0.127E+03   -.130E+03 0.167E+03 -.129E+03   0.301E+01 -.274E+01 0.145E+01   -.294E-01 0.313E-01 -.180E-01
   -.815E-01 -.121E+02 0.207E+02   0.490E-01 0.117E+02 -.200E+02   0.439E-01 0.373E+00 -.609E+00   0.100E-03 0.121E-02 -.257E-02
   -.598E+01 0.595E+02 -.407E+02   0.532E+01 -.625E+02 0.457E+02   0.668E+00 0.301E+01 -.492E+01   0.213E-02 -.380E-02 0.258E-02
   0.414E+02 0.563E+02 -.209E+02   -.430E+02 -.606E+02 0.244E+02   0.159E+01 0.434E+01 -.350E+01   -.365E-02 -.122E-02 0.389E-02
   0.722E+02 0.415E+02 0.269E+02   -.758E+02 -.449E+02 -.299E+02   0.364E+01 0.339E+01 0.300E+01   -.491E-02 -.322E-03 -.120E-02
   -.264E+02 -.232E+02 -.316E+02   0.292E+02 0.239E+02 0.367E+02   -.275E+01 -.695E+00 -.506E+01   -.702E-03 0.207E-02 0.464E-02
   -.362E+02 -.846E+02 0.825E+01   0.395E+02 0.894E+02 -.861E+01   -.336E+01 -.473E+01 0.362E+00   -.601E-03 0.428E-02 0.816E-03
   0.421E+02 0.791E+02 0.243E+01   -.459E+02 -.835E+02 -.349E+01   0.375E+01 0.433E+01 0.104E+01   0.416E-03 -.426E-02 -.162E-02
   0.114E+02 0.631E+01 0.337E+02   -.132E+02 -.597E+01 -.392E+02   0.175E+01 -.350E+00 0.552E+01   0.133E-02 -.149E-02 -.427E-02
   -.549E+02 -.601E+02 0.124E+02   0.574E+02 0.647E+02 -.149E+02   -.254E+01 -.460E+01 0.246E+01   0.414E-02 0.107E-02 -.278E-02
   -.673E+02 -.282E+02 -.342E+02   0.706E+02 0.307E+02 0.383E+02   -.328E+01 -.255E+01 -.405E+01   0.477E-02 -.197E-03 0.215E-02
   0.235E+02 -.457E+02 0.436E+02   -.241E+02 0.480E+02 -.490E+02   0.528E+00 -.224E+01 0.535E+01   -.273E-02 0.281E-02 -.237E-02
   -.902E+01 -.155E+02 -.237E+03   0.902E+01 0.155E+02 0.237E+03   0.408E-02 -.141E-01 -.188E-01   0.162E-04 0.810E-03 0.445E-02
   0.238E+01 0.184E+01 0.203E+03   -.238E+01 -.184E+01 -.203E+03   -.157E-02 -.400E-03 0.488E-02   -.577E-04 -.508E-04 -.264E-02
   0.133E+02 -.575E+01 -.213E+03   -.133E+02 0.575E+01 0.213E+03   -.146E-02 -.150E-02 0.999E-03   -.285E-03 0.237E-03 0.292E-02
   0.645E+00 -.145E+02 0.214E+03   -.649E+00 0.145E+02 -.214E+03   0.415E-02 -.105E-01 0.139E-01   -.861E-04 0.646E-03 -.323E-02
   0.108E+02 -.491E+01 0.210E+03   -.108E+02 0.492E+01 -.210E+03   0.837E-02 -.263E-02 0.921E-02   -.483E-03 0.283E-03 -.305E-02
   0.123E+00 -.165E+02 -.216E+03   -.127E+00 0.165E+02 0.216E+03   0.449E-02 -.961E-02 -.112E-01   -.244E-03 0.729E-03 0.326E-02
   0.176E+02 0.186E+01 0.224E+03   -.176E+02 -.186E+01 -.224E+03   0.118E-01 -.108E-03 0.170E-01   -.757E-03 -.661E-04 -.388E-02
   0.221E-01 -.299E+01 0.203E+03   -.258E-01 0.300E+01 -.203E+03   0.221E-02 -.409E-02 0.734E-02   -.884E-04 0.146E-03 -.266E-02
   0.102E+02 0.163E+02 -.225E+03   -.102E+02 -.163E+02 0.225E+03   0.884E-02 0.505E-02 -.152E-01   -.561E-03 -.643E-03 0.401E-02
   0.787E-01 -.370E+01 -.203E+03   -.814E-01 0.370E+01 0.203E+03   0.274E-02 -.249E-02 -.496E-02   -.986E-04 0.160E-03 0.267E-02
   0.126E+02 0.144E+02 0.225E+03   -.126E+02 -.144E+02 -.225E+03   0.885E-02 0.125E-01 0.235E-01   -.384E-03 -.638E-03 -.387E-02
   0.332E+01 0.554E+00 -.203E+03   -.332E+01 -.557E+00 0.203E+03   -.342E-02 0.310E-02 -.255E-02   0.783E-04 -.955E-04 0.258E-02
   0.188E+02 0.363E+01 -.228E+03   -.188E+02 -.362E+01 0.228E+03   0.789E-02 -.559E-02 -.771E-02   -.907E-03 0.485E-04 0.389E-02
   -.513E+01 -.172E+02 0.235E+03   0.514E+01 0.173E+02 -.235E+03   -.645E-02 -.122E-01 0.265E-01   0.255E-03 0.642E-03 -.444E-02
   0.116E+02 -.129E+02 0.229E+03   -.116E+02 0.129E+02 -.229E+03   0.626E-02 -.713E-02 0.175E-01   -.507E-03 0.613E-03 -.410E-02
   -.246E+01 0.823E+01 -.209E+03   0.247E+01 -.824E+01 0.209E+03   -.567E-02 0.740E-02 -.638E-02   0.255E-03 -.484E-03 0.294E-02
   -.168E+02 0.197E+01 -.235E+03   0.168E+02 -.198E+01 0.235E+03   -.156E-01 0.661E-02 -.297E-01   0.835E-03 -.107E-03 0.473E-02
   -.298E+01 0.180E+02 0.235E+03   0.299E+01 -.180E+02 -.235E+03   -.112E-01 0.901E-02 0.154E-01   0.341E-03 -.691E-03 -.408E-02
   -.159E+02 -.474E+00 0.241E+03   0.159E+02 0.460E+00 -.241E+03   -.112E-01 0.540E-02 0.161E-01   0.689E-03 -.236E-03 -.443E-02
   -.497E+01 0.173E+02 -.230E+03   0.498E+01 -.173E+02 0.230E+03   -.556E-02 0.746E-02 -.195E-01   0.237E-03 -.937E-03 0.433E-02
   0.793E+01 0.955E+00 0.248E+03   -.793E+01 -.956E+00 -.248E+03   0.189E-03 0.395E-02 0.290E-01   -.119E-03 -.165E-03 -.509E-02
   -.121E+02 0.855E+01 -.215E+03   0.121E+02 -.856E+01 0.215E+03   -.102E-01 0.775E-02 -.109E-01   0.618E-03 -.510E-03 0.336E-02
   0.310E+01 0.491E+01 -.249E+03   -.312E+01 -.490E+01 0.249E+03   0.177E-01 -.412E-02 -.216E-01   -.397E-03 0.698E-04 0.516E-02
   -.141E+02 0.999E+01 0.219E+03   0.141E+02 -.999E+01 -.219E+03   -.906E-02 0.752E-02 0.375E-02   0.422E-03 -.355E-03 -.323E-02
   0.658E+01 -.843E+01 -.210E+03   -.659E+01 0.843E+01 0.210E+03   0.778E-03 0.359E-02 0.739E-03   -.915E-04 0.206E-03 0.279E-02
   0.119E+02 -.138E+02 -.235E+03   -.119E+02 0.138E+02 0.235E+03   0.103E-01 -.426E-02 -.992E-02   -.633E-03 0.779E-03 0.395E-02
   -.262E+01 -.196E+01 -.205E+03   0.262E+01 0.196E+01 0.205E+03   -.439E-03 0.212E-02 -.299E-02   0.205E-03 -.119E-03 0.265E-02
   0.512E+01 -.602E+01 0.209E+03   -.513E+01 0.603E+01 -.209E+03   0.425E-02 -.768E-02 0.796E-02   -.242E-03 0.306E-03 -.291E-02
   -.390E+01 0.601E-01 0.205E+03   0.390E+01 -.553E-01 -.205E+03   0.198E-02 -.572E-02 0.136E-02   0.738E-04 0.822E-04 -.269E-02
   -.319E+01 0.106E+02 0.211E+03   0.319E+01 -.106E+02 -.211E+03   -.244E-02 0.176E-02 0.232E-02   0.148E-03 -.280E-03 -.291E-02
   -.471E+01 0.332E+01 0.204E+03   0.470E+01 -.332E+01 -.204E+03   0.640E-02 -.107E-02 0.432E-02   0.457E-04 -.164E-03 -.269E-02
   0.180E+01 0.126E+02 -.210E+03   -.180E+01 -.126E+02 0.210E+03   -.275E-03 0.617E-02 -.838E-02   -.733E-04 -.550E-03 0.310E-02
   0.289E+01 0.136E+02 0.211E+03   -.289E+01 -.136E+02 -.211E+03   -.373E-02 0.473E-02 0.703E-02   0.154E-04 -.489E-03 -.304E-02
   0.418E+01 0.483E+01 0.206E+03   -.418E+01 -.483E+01 -.206E+03   0.155E-02 0.267E-02 0.155E-02   -.149E-03 -.173E-03 -.284E-02
   -.656E+01 -.114E+02 -.211E+03   0.656E+01 0.114E+02 0.211E+03   0.108E-02 -.723E-02 -.968E-02   0.183E-03 0.552E-03 0.309E-02
   0.321E+01 0.509E+01 -.206E+03   -.321E+01 -.509E+01 0.206E+03   0.369E-02 0.928E-03 -.134E-01   -.281E-03 -.215E-03 0.287E-02
   -.499E+01 -.114E+02 0.210E+03   0.500E+01 0.114E+02 -.210E+03   -.414E-02 -.678E-02 0.122E-01   0.164E-03 0.469E-03 -.308E-02
   0.911E+01 0.592E+01 0.208E+03   -.912E+01 -.592E+01 -.208E+03   0.755E-02 0.299E-02 0.981E-02   -.422E-03 -.264E-03 -.298E-02
   0.973E+01 0.688E+01 -.209E+03   -.974E+01 -.688E+01 0.209E+03   0.812E-02 0.119E-02 -.926E-02   -.581E-03 -.275E-03 0.307E-02
[...]
   -.388E+01 0.412E+01 0.695E+03   0.388E+01 -.412E+01 -.699E+03   0.426E-03 0.873E-03 0.510E+01   0.922E-04 -.159E-04 -.661E-03
   -.149E+02 0.162E+02 -.277E+03   0.149E+02 -.162E+02 0.282E+03   0.946E-03 0.858E-03 -.510E+01   0.555E-03 -.508E-03 -.506E-02
   0.547E+01 0.914E+00 0.286E+03   -.547E+01 -.915E+00 -.290E+03   0.573E-03 0.116E-02 0.509E+01   0.874E-04 -.333E-03 0.451E-02
   0.165E+01 0.204E+00 -.692E+03   -.165E+01 -.204E+00 0.697E+03   0.153E-02 -.138E-03 -.510E+01   0.112E-03 -.111E-03 0.755E-03
   0.104E+01 0.138E+01 0.692E+03   -.105E+01 -.138E+01 -.697E+03   0.917E-03 0.444E-04 0.510E+01   -.499E-04 -.304E-04 -.634E-03
   0.367E+01 0.425E+01 -.286E+03   -.368E+01 -.425E+01 0.290E+03   0.119E-02 0.115E-03 -.509E+01   -.156E-03 -.979E-04 -.469E-02
   0.270E+02 -.231E+02 0.262E+03   -.270E+02 0.231E+02 -.266E+03   0.350E-02 -.139E-02 0.511E+01   -.895E-03 0.944E-03 0.565E-02
   0.633E+01 -.536E+01 -.699E+03   -.633E+01 0.536E+01 0.703E+03   0.220E-02 -.139E-02 -.509E+01   0.521E-04 0.756E-04 0.954E-03
   0.553E+01 -.457E+01 0.697E+03   -.553E+01 0.457E+01 -.702E+03   0.137E-02 -.980E-03 0.510E+01   -.214E-03 0.183E-03 -.874E-03
   0.225E+02 -.190E+02 -.266E+03   -.225E+02 0.190E+02 0.271E+03   0.304E-03 -.428E-03 -.506E+01   -.116E-02 0.105E-02 -.583E-02
   0.348E+02 -.454E+01 0.206E+03   -.348E+02 0.454E+01 -.210E+03   0.429E-02 0.301E-02 0.508E+01   -.206E-02 0.970E-03 0.885E-02
   0.656E+01 -.112E+01 -.710E+03   -.656E+01 0.112E+01 0.714E+03   0.135E-02 0.348E-03 -.509E+01   -.465E-03 0.212E-03 0.157E-02
   0.102E+01 -.509E+01 -.694E+03   -.102E+01 0.509E+01 0.699E+03   0.126E-02 -.437E-03 -.510E+01   0.225E-03 -.197E-04 0.800E-03
   -.519E+01 -.500E+01 0.287E+03   0.519E+01 0.500E+01 -.292E+03   -.149E-02 0.106E-02 0.508E+01   0.716E-04 0.250E-03 0.454E-02
   -.121E+00 -.154E+01 0.253E+01   0.195E-13 0.564E-12 -.438E-11   0.122E+00 0.155E+01 -.254E+01   -.262E-03 -.408E-02 0.517E-02

 POSITION                                       TOTAL-FORCE (eV/Angst)
      4.86925      4.82600     12.49777        -0.011439      0.001249     -0.064888
      4.43578      3.85871     13.44513         0.004641      0.000897     -0.031868
      5.72792      5.75330     13.15817         0.003474     -0.007292     -0.016177
      5.83794      5.35402     14.53769         0.003167      0.000650     -0.001085
      5.02713      4.17195     14.71214        -0.004210     -0.007320      0.004435
      1.73959      6.09781     14.09235        -0.000889     -0.005392      0.005387
      3.03906      6.98980     15.80215         0.009700      0.003804      0.015940
      2.17647      5.89256     15.45455        -0.004122      0.004549      0.016362
      3.12704      7.85721     14.67497        -0.001370     -0.003125      0.006180
      2.33701      7.31520     13.62296         0.007805      0.010910      0.056379
      3.82996      5.82455     14.17078         0.011515      0.007529      0.016357
      4.90240      3.60774     15.63282        -0.005072     -0.004359      0.021540
      1.87726      5.07911     16.11122         0.006866      0.000165      0.016710
      1.05812      5.46328     13.53173        -0.009747     -0.013175     -0.008129
      3.55613      7.12080     16.75125        -0.008601      0.004665     -0.005295
      3.75705      8.74141     14.60620        -0.007724      0.015495     -0.007322
      3.73438      3.05067     13.25103        -0.003151     -0.011068     -0.012112
      4.53900      4.89239     11.46158         0.017281     -0.007968      0.011126
      6.20411      6.61643     12.69814         0.002313     -0.004070     -0.002902
      6.45337      5.83075     15.29619         0.000598      0.003246      0.023653
      2.23912      7.73320     12.62430        -0.009937      0.008728     -0.038832
      4.76997      8.26246     21.28500        -0.000757     -0.003003     -0.002070
     -3.18000     11.01584      7.09500        -0.000331     -0.000088      0.002522
     -1.58969      8.26182     21.28500        -0.001244     -0.000145     -0.001108
      3.18000     11.01584      7.09500         0.000817      0.002392      0.004688
     -1.59000      8.26188      7.09500         0.001914     -0.000769      0.003659
      3.18007     11.01583     21.28500        -0.000348     -0.000506     -0.003538
      0.00000      5.50792      7.09500        -0.000180     -0.001909      0.005005
     12.72000      0.00000      7.09500        -0.001549      0.000044      0.003018
      1.58991      2.75393     21.28500        -0.000575      0.000622     -0.002212
     12.72001      0.00012     21.28500        -0.000057     -0.000520     -0.000934
      1.59000      2.75396      7.09500        -0.004369      0.000745      0.003566
     -3.18002     11.01587     21.28500         0.000280     -0.000349     -0.001070
      0.00025      5.50807     21.28500        -0.001567     -0.001122     -0.001254
      4.77000      8.26188      7.09500        -0.001522      0.003539      0.002448
      1.59000      8.26188      7.09500        -0.000565     -0.000072      0.003508
      6.35978     -0.00003     21.28500         0.001563      0.000028     -0.002291
      6.36008      5.50780     21.28500        -0.002579      0.001720     -0.008214
      4.77000      2.75396      7.09500         0.006124      0.002647      0.006531
      6.36000      5.50792      7.09500         0.003372     -0.009088      0.005542
      4.76987      2.75405     21.28500        -0.000080     -0.000043     -0.005053
      3.18000      5.50792      7.09500        -0.001727      0.002288      0.005127
      7.95012      2.75396     21.28500        -0.000349     -0.000630     -0.004325
      3.17928      5.50783     21.28500         0.003397      0.001233     -0.004566
      7.95000      2.75396      7.09500        -0.001939      0.003282      0.001485
      0.00020     11.01562     21.28500        -0.000463      0.000993     -0.000686
      1.58993      8.26161     21.28500         0.000288      0.001012     -0.006139
      9.54041     -0.00000     21.28500        -0.001718     -0.000204     -0.001342
     -0.00000     11.01584      7.09500         0.001317     -0.001031      0.003231
      9.54000      0.00000      7.09500        -0.000066     -0.000806      0.000206
      6.36000      0.00000      7.09500         0.002593      0.001404      0.000908
     11.13000      2.75396      7.09500         0.002741     -0.001113      0.003698
      3.17992      0.00012     21.28500        -0.000049     -0.000554     -0.001461
      3.18000      0.00000      7.09500         0.000151      0.001347      0.001751
      0.00000      0.00000      7.09500        -0.001402      0.000587     -0.005180
      6.35992     11.01597     21.28500        -0.000007      0.000333     -0.001710
     -0.00011      0.00006     21.28500         0.000270     -0.000134     -0.007193
      6.36000     11.01584      7.09500        -0.002185      0.000394      0.003640
     -1.59000      2.75396      7.09500        -0.001476      0.000745      0.003545
     -1.59012      2.75386     21.28500         0.001366      0.000654     -0.002640
[...]
      7.94992     11.93386     22.88000        -0.000259      0.000559     -0.585964
      7.95000      0.91799      5.50000         0.000206      0.000655      0.585122
      7.95000      0.91799      8.69000         0.000139      0.001337     -0.583780
     -1.58990     11.93365     19.69000         0.000231      0.000019      0.586571
     -1.59002     11.93383     22.88000         0.000552     -0.000388     -0.586532
     -1.59000     11.93383      5.50000        -0.000087      0.000330      0.585241
     -1.59000     11.93383      8.69000        -0.000229      0.000937     -0.585550
      0.00009      9.17973     19.69000         0.000195     -0.000039      0.579567
      0.00011      9.17980     22.88000         0.000352     -0.000414     -0.582701
      0.00000      9.17987      5.50000        -0.000079      0.000190      0.586333
      0.00000      9.17987      8.69000        -0.000363      0.000281     -0.583184
      1.59001      6.42592     19.69000        -0.001154     -0.000117      0.563856
      1.59005      6.42582     22.88000        -0.000748      0.000071     -0.580371
      1.59022     11.93385     22.88000         0.000252     -0.000279     -0.586171
      7.94996     11.93389     19.69000        -0.000334      0.000426      0.586391
    total drift:                                0.001138      0.000791     -0.004937

  FREE ENERGIE OF THE ION-ELECTRON SYSTEM (eV)
  free  energy   TOTEN  =     -1253.20413619 eV

  energy  without entropy=    -1253.06808060  energy(sigma->0) =    -1253.13610840

 d Force = 0.3975820E-05[-0.865E-05, 0.166E-04]  d Energy =-0.4980821E-04 0.538E-04
 d Force =-0.3121598E+00[-0.312E+00,-0.312E+00]  d Ewald  =-0.3121600E+00 0.143E-06

 reached required accuracy - stopping structural energy minimisation