 vasp.5.4.4.18Apr17-6-g9f103f2a35 (build Oct 28 2020 13:00:36) gamma-only

 executed on             LinuxIFC date 2020.12.03  21:33:07

 INCAR:
 POTCAR:    PAW_PBE C 08Apr2002
 POTCAR:    PAW_PBE Cr 06Sep2000
 POTCAR:    PAW_PBE H 15Jun2001
 POTCAR:    PAW_PBE Mo 08Apr2002
 POTCAR:    PAW_PBE S 06Sep2000
 POTCAR:    PAW_PBE C 08Apr2002
   VRHFIN =C: s2p2

   TITEL  = PAW_PBE C 08Apr2002
   POMASS =   12.011; ZVAL   =    4.000    mass and valenz
   ENMAX  =  400.000; ENMIN  =  300.000 eV

 POTCAR:    PAW_PBE Cr 06Sep2000
   VRHFIN =Cr : d5 s1

   TITEL  = PAW_PBE Cr 06Sep2000
   POMASS =   51.996; ZVAL   =    6.000    mass and valenz
   ENMAX  =  227.080; ENMIN  =  170.310 eV

 POTCAR:    PAW_PBE H 15Jun2001
   VRHFIN =H: ultrasoft test

   TITEL  = PAW_PBE H 15Jun2001
   POMASS =    1.000; ZVAL   =    1.000    mass and valenz
   ENMAX  =  250.000; ENMIN  =  200.000 eV

 POTCAR:    PAW_PBE Mo 08Apr2002
   VRHFIN =Mo: 4p5s4d

   TITEL  = PAW_PBE Mo 08Apr2002
   POMASS =   95.940; ZVAL   =    6.000    mass and valenz
   ENMAX  =  224.584; ENMIN  =  168.438 eV

 POTCAR:    PAW_PBE S 06Sep2000
   VRHFIN =S : s2p4

   TITEL  = PAW_PBE S 06Sep2000
   POMASS =   32.066; ZVAL   =    6.000    mass and valenz
   ENMAX  =  258.689; ENMIN  =  194.016 eV

 Optimization of the real space projectors (new method)

 maximal supplied QI-value         = 25.13
 optimisation between [QCUT,QGAM] = [ 10.05, 20.36] = [ 28.30,116.06] Ry
 Optimized for a Real-space Cutoff    1.51 Angstroem

   l    n(q)    QCUT    max X(q) W(low)/X(q) W(high)/X(q)  e(spline)
   0      9    10.053   115.676    0.19E-03    0.21E-03    0.38E-06
   0      9    10.053    87.132    0.19E-03    0.21E-03    0.38E-06
   1      9    10.053     4.429    0.87E-04    0.11E-03    0.39E-06
   1      9    10.053     2.733    0.59E-04    0.62E-04    0.43E-06
 Optimization of the real space projectors (new method)

[...]

   l    n(q)    QCUT    max X(q) W(low)/X(q) W(high)/X(q)  e(spline)
   2      9    10.205    80.908    0.21E-03    0.30E-03    0.60E-06
   2      9    10.205    79.000    0.21E-03    0.30E-03    0.60E-06
   0     10    10.205    52.066    0.39E-04    0.38E-04    0.19E-06
   0     10    10.205    24.514    0.33E-04    0.32E-04    0.16E-06
   1     10    10.205    16.033    0.64E-04    0.17E-03    0.19E-06
   1     10    10.205    11.179    0.49E-04    0.13E-03    0.15E-06
 Optimization of the real space projectors (new method)

 maximal supplied QI-value         = 19.84
 optimisation between [QCUT,QGAM] = [ 10.12, 20.44] = [ 28.68,116.96] Ry
 Optimized for a Real-space Cutoff    1.42 Angstroem

   l    n(q)    QCUT    max X(q) W(low)/X(q) W(high)/X(q)  e(spline)
   0      9    10.119   187.594    0.52E-04    0.93E-04    0.64E-07
   0      9    10.119   164.243    0.51E-04    0.92E-04    0.63E-07
   1      8    10.119    67.533    0.16E-03    0.17E-03    0.23E-06
   1      8    10.119    50.729    0.16E-03    0.16E-03    0.23E-06
  PAW_PBE C 08Apr2002                   :
  PAW_PBE Cr 06Sep2000                  :
  PAW_PBE H 15Jun2001                   :
  PAW_PBE Mo 08Apr2002                  :
  PAW_PBE S 06Sep2000                   :

 POSCAR:  C Cr  H Mo  S
  positions in cartesian coordinates
 exchange correlation table for  LEXCH =        8
   RHO(1)=    0.500       N(1)  =     2000
   RHO(2)=  100.500       N(2)  =     4000

 ion  position               nearest neighbor table
   1  0.431  0.293  0.473-  18 1.09   2 1.42   3 1.43  11 2.20
   2  0.349  0.269  0.447-  17 1.09   1 1.42   5 1.43  11 2.18
   3  0.443  0.369  0.500-  19 1.09   1 1.43   4 1.44  11 2.15
   4  0.368  0.392  0.492-  20 1.09   3 1.44   5 1.44  11 2.09
   5  0.310  0.329  0.459-  12 1.09   2 1.43   4 1.44  11 2.11
   6  0.518  0.451  0.379-  14 1.09  10 1.44   8 1.44  11 2.11
   7  0.482  0.559  0.413-  15 1.09   9 1.43   8 1.44  11 2.15
   8  0.448  0.483  0.382-  13 1.09   7 1.44   6 1.44  11 2.10
   9  0.572  0.573  0.429-  16 1.09  10 1.42   7 1.43  11 2.20
  10  0.594  0.506  0.409-  21 1.09   9 1.42   6 1.44  11 2.18
  11  0.453  0.422  0.438-   4 2.09   8 2.10   5 2.11   6 2.11   3 2.15   7 2.15  10 2.18   2 2.18
                             1 2.20   9 2.20
  12  0.246  0.328  0.445-   5 1.09
  13  0.383  0.458  0.363-   8 1.09
  14  0.515  0.396  0.359-   6 1.09
  15  0.446  0.598  0.422-   7 1.09
  16  0.613  0.622  0.454-   9 1.09
  17  0.323  0.216  0.422-   2 1.09
  18  0.478  0.262  0.471-   1 1.09
  19  0.501  0.403  0.523-   3 1.09
  20  0.357  0.445  0.508-   4 1.09
  21  0.657  0.498  0.415-  10 1.09
  22  0.600  0.600  0.657-  97 2.43 148 2.43 144 2.43  98 2.43 149 2.43 145 2.43  56 3.18  27 3.18
                            61 3.18  44 3.18  38 3.18  47 3.18
  23  0.200  0.800  0.219- 126 2.43 162 2.43 121 2.43 139 2.43 163 2.43 122 2.43  26 3.18  49 3.18
                            51 3.18  64 3.18  54 3.18  70 3.18
  24  0.200  0.600  0.657- 164 2.43 127 2.43 123 2.43 128 2.43 165 2.43 124 2.43  46 3.18  33 3.18
                            47 3.18  63 3.18  34 3.18  66 3.18
  25  0.600  0.800  0.219-  92 2.43 146 2.43 112 2.43  94 2.43 147 2.43 143 2.43  35 3.18  58 3.18
                            29 3.18  36 3.18  50 3.18  49 3.18
  26  0.200  0.600  0.219- 166 2.43 129 2.43 126 2.43 130 2.43 167 2.43 139 2.43  49 3.18  36 3.18
                            23 3.18  62 3.18  28 3.18  64 3.18
  27  0.600  0.800  0.657-  96 2.43 144 2.43 110 2.43  93 2.43 145 2.43 170 2.43  22 3.18  56 3.18
                            31 3.18  47 3.18  48 3.18  46 3.18
  28  0.200  0.400  0.219- 133 2.43 142 2.43 129 2.43 141 2.43 134 2.43 130 2.43  32 3.18  42 3.18
                            36 3.18  59 3.18  26 3.18  62 3.18
  29  0.800  0.000  0.219-  72 2.43  84 2.43  92 2.43  94 2.43 108 2.43  86 2.43  50 3.18  25 3.18
                            59 3.18  58 3.18  52 3.18  55 3.18
  30  0.200  0.200  0.657- 140 2.43 135 2.43 131 2.43 136 2.43 125 2.43 132 2.43  44 3.18  41 3.18
                            34 3.18  57 3.18  53 3.18  60 3.18
  31  0.800  0.000  0.657-  80 2.43  85 2.43  96 2.43  93 2.43  82 2.43  81 2.43  48 3.18  27 3.18
                            60 3.18  56 3.18  71 3.18  57 3.18
  32  0.200  0.200  0.219- 113 2.43 137 2.43 133 2.43 114 2.43 138 2.43 134 2.43  42 3.18  39 3.18
                            28 3.18  55 3.18  54 3.18  59 3.18
  33  0.200  0.800  0.657- 123 2.43 160 2.43 119 2.43 124 2.43 161 2.43 120 2.43  24 3.18  46 3.18
                            37 3.18  66 3.18  53 3.18  69 3.18
  34  0.200  0.400  0.657- 131 2.43 168 2.43 127 2.43 132 2.43 169 2.43 128 2.43  30 3.18  44 3.18
                            47 3.18  60 3.18  24 3.18  63 3.18
  35  0.600  0.600  0.219- 100 2.43 150 2.43 146 2.43 102 2.43 151 2.43 147 2.43  58 3.18  25 3.18
                            67 3.18  42 3.18  40 3.18  36 3.18
  36  0.400  0.600  0.219- 166 2.43 146 2.43 142 2.43 167 2.43 141 2.43 147 2.43  26 3.18  49 3.18
                            28 3.18  25 3.18  42 3.18  35 3.18
  37  0.400  0.000  0.657- 115 2.43 156 2.43 160 2.43 111 2.43 161 2.43 116 2.43  53 3.18  33 3.18
                            43 3.18  46 3.18  41 3.18  48 3.18
  38  0.600  0.400  0.657- 105 2.43 152 2.43 148 2.43 106 2.43 153 2.43 149 2.43  43 3.18  65 3.18
                            61 3.18  41 3.18  22 3.18  44 3.18
  39  0.400  0.200  0.219- 113 2.43 154 2.43 117 2.43 114 2.43 118 2.43 155 2.43  32 3.18  42 3.18
                            54 3.18  40 3.18  51 3.18  45 3.18
  40  0.600  0.400  0.219-  91 2.43 154 2.43 150 2.43  90 2.43 155 2.43 151 2.43  45 3.18  68 3.18
                            67 3.18  39 3.18  35 3.18  42 3.18
  41  0.400  0.200  0.657- 140 2.43 152 2.43 115 2.43 125 2.43 116 2.43 153 2.43  30 3.18  44 3.18
                            53 3.18  38 3.18  37 3.18  43 3.18
  42  0.400  0.400  0.219- 113 2.43 142 2.43 150 2.43 114 2.43 151 2.43 141 2.43  32 3.18  28 3.18
                            39 3.18  35 3.18  36 3.18  40 3.18
  43  0.600  0.200  0.657-  73 2.43 156 2.43 152 2.43  74 2.43 111 2.43 153 2.43  65 3.18  38 3.18
                            71 3.18  37 3.18  48 3.18  41 3.18
  44  0.400  0.400  0.657- 140 2.43 148 2.43 168 2.43 149 2.43 125 2.43 169 2.43  30 3.18  34 3.18
                            41 3.18  22 3.18  47 3.18  38 3.18
  45  0.600  0.200  0.219-  77 2.43 158 2.43 154 2.43  78 2.43 159 2.43 155 2.43  68 3.18  52 3.18
                            40 3.18  51 3.18  50 3.18  39 3.18
  46  0.400  0.800  0.657- 110 2.43 160 2.43 164 2.43 165 2.43 170 2.43 161 2.43  24 3.18  33 3.18
                            47 3.18  48 3.18  37 3.18  27 3.18
  47  0.400  0.600  0.657- 164 2.43 144 2.43 168 2.43 165 2.43 145 2.43 169 2.43  24 3.18  46 3.18
                            34 3.18  27 3.18  44 3.18  22 3.18
  48  0.600  0.000  0.657-  80 2.43 110 2.43 156 2.43  81 2.43 170 2.43 111 2.43  31 3.18  71 3.18
                            46 3.18  27 3.18  43 3.18  37 3.18
  49  0.400  0.800  0.219- 112 2.43 162 2.43 166 2.43 143 2.43 167 2.43 163 2.43  26 3.18  23 3.18
                            36 3.18  50 3.18  51 3.18  25 3.18
  50  0.600  0.000  0.219-  84 2.43 112 2.43 158 2.43 143 2.43  86 2.43 159 2.43  29 3.18  52 3.18
                            49 3.18  25 3.18  45 3.18  51 3.18
  51  0.400  0.000  0.219- 117 2.43 158 2.43 162 2.43 159 2.43 163 2.43 118 2.43  54 3.18  23 3.18
                            45 3.18  49 3.18  39 3.18  50 3.18
  52  0.800  0.200  0.219-  77 2.43  87 2.43  84 2.43  78 2.43  86 2.43 104 2.43  45 3.18  68 3.18
                            50 3.18  62 3.18  29 3.18  59 3.18
  53  0.200  0.000  0.657- 115 2.43 119 2.43 135 2.43 120 2.43 116 2.43 136 2.43  37 3.18  41 3.18
                            69 3.18  33 3.18  30 3.18  57 3.18
  54  0.200  0.000  0.219- 117 2.43 121 2.43 137 2.43 122 2.43 118 2.43 138 2.43  51 3.18  39 3.18
                            70 3.18  32 3.18  23 3.18  55 3.18
  55  0.000  0.000  0.219-  83 2.43 137 2.43  72 2.43  89 2.43 138 2.43 108 2.43  32 3.18  58 3.18
                            59 3.18  70 3.18  54 3.18  29 3.18
  56  0.800  0.800  0.657-  96 2.43  97 2.43 171 2.43  98 2.43  93 2.43 157 2.43  22 3.18  27 3.18
                            61 3.18  57 3.18  31 3.18  69 3.18
  57  0.000  0.000  0.657- 135 2.43 171 2.43  85 2.43 157 2.43 136 2.43  82 2.43  30 3.18  56 3.18
                            60 3.18  69 3.18  53 3.18  31 3.18
  58  0.800  0.800  0.219-  92 2.43 100 2.43  83 2.43 102 2.43  94 2.43  89 2.43  35 3.18  25 3.18
                            67 3.18  55 3.18  29 3.18  70 3.18
  59  0.000  0.200  0.219- 133 2.43  72 2.43  87 2.43 108 2.43 134 2.43 104 2.43  62 3.18  28 3.18
                            29 3.18  55 3.18  32 3.18  52 3.18
  60  0.000  0.200  0.657- 131 2.43  85 2.43 103 2.43  82 2.43 132 2.43  88 2.43  63 3.18  34 3.18
                            31 3.18  57 3.18  30 3.18  71 3.18
  61  0.800  0.600  0.657-  97 2.43 105 2.43  76 2.43  98 2.43 106 2.43  75 2.43  22 3.18  56 3.18
                            38 3.18  69 3.18  65 3.18  66 3.18
  62  0.000  0.400  0.219-  87 2.43  95 2.43 129 2.43 104 2.43 130 2.43  79 2.43  59 3.18  52 3.18
                            26 3.18  64 3.18  28 3.18  68 3.18
[...]
   -.103E+03 -.931E+01 -.813E+02   0.104E+03 0.843E+01 0.855E+02   -.725E+00 0.850E+00 -.424E+01   0.757E-02 0.616E-03 0.773E-02
   0.166E+03 -.654E+02 -.580E+02   -.168E+03 0.654E+02 0.614E+02   0.255E+01 -.145E-01 -.345E+01   -.101E-01 0.431E-02 0.257E-02
   0.251E+03 0.101E+03 0.604E+02   -.254E+03 -.103E+03 -.595E+02   0.357E+01 0.212E+01 -.916E+00   -.926E-02 0.318E-02 0.114E-02
   -.114E+03 0.729E+02 0.737E+02   0.116E+03 -.730E+02 -.777E+02   -.159E+01 0.489E-01 0.402E+01   0.102E-01 0.101E-02 -.426E-02
   0.164E+03 -.214E+03 -.442E+02   -.166E+03 0.218E+03 0.426E+02   0.172E+01 -.362E+01 0.158E+01   -.596E-02 0.292E-02 0.588E-03
   0.152E+03 -.175E+02 0.696E+02   -.153E+03 0.185E+02 -.734E+02   0.176E+01 -.102E+01 0.382E+01   -.791E-02 0.535E-02 -.354E-02
   -.889E+02 -.245E+03 -.106E+03   0.902E+02 0.249E+03 0.106E+03   -.133E+01 -.412E+01 0.564E+00   0.969E-03 0.387E-02 -.448E-02
   -.259E+03 -.689E+02 -.341E+02   0.262E+03 0.709E+02 0.321E+02   -.326E+01 -.196E+01 0.192E+01   0.642E-02 -.698E-03 -.762E-03
   -.243E+02 0.569E+00 -.687E+01   0.237E+02 -.574E+00 0.664E+01   0.669E+00 -.508E-02 0.222E+00   0.786E-04 -.159E-03 0.680E-03
   0.884E+02 0.171E+02 0.272E+02   -.937E+02 -.173E+02 -.296E+02   0.531E+01 0.127E+00 0.235E+01   -.111E-02 0.919E-03 0.528E-03
   0.646E+02 0.147E+02 0.136E+02   -.690E+02 -.166E+02 -.168E+02   0.442E+01 0.189E+01 0.324E+01   -.183E-02 0.287E-03 -.117E-02
   -.372E+02 0.492E+02 0.149E+02   0.392E+02 -.533E+02 -.185E+02   -.207E+01 0.405E+01 0.359E+01   0.188E-02 -.524E-03 -.131E-02
   0.698E+02 -.595E+02 -.229E+02   -.746E+02 0.624E+02 0.246E+02   0.478E+01 -.285E+01 -.169E+01   -.105E-02 -.190E-03 -.171E-03
   -.269E+02 -.701E+02 -.426E+02   0.283E+02 0.737E+02 0.469E+02   -.145E+01 -.361E+01 -.433E+01   -.122E-04 0.953E-03 0.365E-04
   0.429E+01 0.754E+02 0.422E+02   -.425E+01 -.794E+02 -.465E+02   -.479E-01 0.391E+01 0.431E+01   0.211E-03 -.115E-02 -.390E-03
   -.776E+02 0.490E+02 0.149E+02   0.829E+02 -.513E+02 -.152E+02   -.534E+01 0.226E+01 0.397E+00   0.170E-02 -.346E-03 0.735E-04
   -.475E+02 -.249E+02 -.166E+02   0.509E+02 0.275E+02 0.206E+02   -.336E+01 -.256E+01 -.398E+01   0.148E-02 0.169E-03 0.134E-02
   0.557E+02 -.461E+02 -.103E+02   -.590E+02 0.500E+02 0.131E+02   0.324E+01 -.388E+01 -.284E+01   -.173E-02 0.120E-02 0.842E-03
   -.920E+02 -.422E+01 -.198E+02   0.977E+02 0.360E+01 0.209E+02   -.567E+01 0.632E+00 -.113E+01   0.500E-03 -.300E-03 -.271E-03
   -.699E+01 -.188E+02 -.235E+03   0.699E+01 0.188E+02 0.235E+03   -.617E-03 -.110E-01 -.180E-01   0.948E-04 0.775E-03 0.554E-03
   0.182E+01 0.811E+00 0.202E+03   -.182E+01 -.813E+00 -.202E+03   -.727E-03 0.320E-02 0.815E-02   -.948E-05 -.380E-04 -.199E-03
   0.120E+02 -.629E+01 -.209E+03   -.121E+02 0.629E+01 0.209E+03   0.272E-02 0.101E-02 -.102E-01   -.308E-03 -.199E-03 -.122E-03
   0.298E+01 -.183E+02 0.217E+03   -.298E+01 0.183E+02 -.217E+03   -.501E-02 0.934E-02 -.375E-02   -.105E-03 0.326E-03 -.371E-03
   0.128E+02 -.514E+01 0.209E+03   -.128E+02 0.514E+01 -.209E+03   -.117E-03 -.133E-02 0.934E-02   -.240E-03 0.139E-03 -.292E-03
   0.166E+01 -.151E+02 -.212E+03   -.166E+01 0.151E+02 0.213E+03   0.779E-03 -.790E-02 -.135E-01   -.191E-03 0.420E-03 0.540E-04
   0.204E+02 0.328E+01 0.225E+03   -.204E+02 -.328E+01 -.225E+03   0.257E-02 -.375E-02 0.134E-01   -.451E-03 0.891E-05 -.590E-03
   0.102E+01 -.575E+01 0.203E+03   -.102E+01 0.574E+01 -.203E+03   -.171E-03 0.671E-02 0.441E-02   -.523E-04 0.115E-03 -.226E-03
   0.136E+02 0.165E+02 -.231E+03   -.136E+02 -.165E+02 0.231E+03   -.100E-01 -.285E-02 0.164E-01   -.171E-03 -.997E-04 0.330E-03
   0.202E+01 -.271E+01 -.203E+03   -.201E+01 0.271E+01 0.203E+03   -.368E-02 -.504E-02 -.630E-02   0.134E-03 0.169E-03 -.134E-03
   0.113E+02 0.159E+02 0.224E+03   -.113E+02 -.159E+02 -.224E+03   0.467E-02 0.307E-02 0.189E-01   -.228E-03 -.351E-03 -.680E-03
   0.141E+01 0.297E+01 -.202E+03   -.141E+01 -.296E+01 0.202E+03   0.219E-02 -.355E-02 -.580E-02   -.416E-04 0.867E-04 -.165E-03
   0.214E+02 -.858E+00 -.228E+03   -.214E+02 0.844E+00 0.228E+03   0.611E-02 0.138E-01 -.143E-01   -.336E-03 0.248E-03 0.736E-04
   -.667E+01 -.169E+02 0.244E+03   0.667E+01 0.169E+02 -.244E+03   -.245E-02 -.131E-01 -.169E-02   0.151E-03 0.404E-03 -.768E-03
   0.162E+02 -.137E+02 0.234E+03   -.162E+02 0.137E+02 -.234E+03   -.752E-02 -.154E-01 0.143E-01   -.369E-03 0.345E-03 -.627E-03
   -.536E+01 0.112E+02 -.210E+03   0.536E+01 -.112E+02 0.210E+03   0.678E-02 -.422E-02 -.395E-02   -.911E-04 0.193E-03 -.751E-04
   -.204E+02 -.807E+00 -.239E+03   0.204E+02 0.796E+00 0.239E+03   -.628E-02 0.120E-01 -.285E-01   0.339E-03 0.544E-03 0.351E-03
   -.515E+01 0.200E+02 0.230E+03   0.515E+01 -.200E+02 -.230E+03   -.284E-02 -.455E-03 0.241E-01   0.182E-03 -.469E-03 -.725E-03
   -.190E+02 0.574E+01 0.240E+03   0.190E+02 -.572E+01 -.240E+03   0.259E-02 -.116E-01 0.308E-02   0.487E-03 -.113E-03 -.781E-03
   -.809E+01 0.193E+02 -.237E+03   0.807E+01 -.193E+02 0.237E+03   0.202E-01 -.223E-02 0.571E-02   0.182E-03 -.246E-03 0.553E-03
   0.763E+01 0.696E+01 0.252E+03   -.761E+01 -.695E+01 -.252E+03   -.934E-02 -.410E-02 0.155E-01   -.163E-03 -.972E-04 -.106E-02
   -.156E+02 0.932E+01 -.216E+03   0.156E+02 -.933E+01 0.216E+03   -.947E-03 0.371E-02 -.997E-02   -.491E-03 0.182E-03 -.629E-04
   0.538E+01 -.164E+01 -.255E+03   -.538E+01 0.161E+01 0.255E+03   0.879E-02 0.341E-01 -.322E-01   0.705E-03 0.715E-03 0.512E-03
   -.131E+02 0.104E+02 0.214E+03   0.131E+02 -.104E+02 -.214E+03   -.743E-02 0.212E-02 0.171E-01   0.270E-03 -.220E-03 -.361E-03
   0.522E+01 -.646E+01 -.207E+03   -.523E+01 0.647E+01 0.207E+03   0.297E-02 -.528E-02 -.107E-01   -.291E-03 0.237E-03 -.122E-03
   0.129E+02 -.166E+02 -.229E+03   -.129E+02 0.166E+02 0.229E+03   0.222E-02 0.217E-02 -.139E-01   -.164E-04 -.283E-03 0.177E-03
   -.320E+01 -.352E+00 -.203E+03   0.320E+01 0.355E+00 0.203E+03   -.354E-04 -.201E-02 -.850E-02   -.310E-03 0.327E-03 -.155E-03
   0.772E+01 -.825E+01 0.208E+03   -.771E+01 0.825E+01 -.208E+03   -.470E-02 -.302E-03 0.830E-02   -.155E-03 0.131E-03 -.250E-03
   -.167E+01 -.257E+01 0.204E+03   0.168E+01 0.256E+01 -.204E+03   -.577E-02 0.403E-02 0.489E-02   -.131E-04 0.613E-04 -.194E-03
   -.293E+01 0.859E+01 0.207E+03   0.294E+01 -.859E+01 -.207E+03   -.295E-02 0.349E-02 0.900E-02   0.732E-04 -.161E-03 -.271E-03
   -.304E+01 0.250E+01 0.202E+03   0.304E+01 -.250E+01 -.202E+03   0.677E-03 0.141E-02 0.109E-01   0.126E-04 -.274E-04 -.201E-03
   0.115E+01 0.163E+02 -.213E+03   -.115E+01 -.163E+02 0.213E+03   0.268E-02 -.556E-02 0.255E-03   -.219E-04 -.499E-03 0.454E-04
   0.709E+00 0.124E+02 0.209E+03   -.711E+00 -.124E+02 -.209E+03   0.345E-02 0.443E-02 0.118E-01   0.443E-04 -.268E-03 -.363E-03
   0.287E+01 0.328E+01 0.206E+03   -.288E+01 -.328E+01 -.206E+03   0.555E-02 0.646E-02 0.458E-04   -.521E-04 -.932E-04 -.306E-03
   -.468E+01 -.104E+02 -.210E+03   0.468E+01 0.104E+02 0.210E+03   -.336E-02 -.889E-02 -.101E-01   0.903E-04 0.632E-03 0.397E-04
   0.541E+01 0.694E+01 -.208E+03   -.540E+01 -.694E+01 0.208E+03   -.571E-02 -.635E-02 -.625E-02   0.261E-03 0.210E-03 -.527E-04
   -.678E+01 -.140E+02 0.214E+03   0.678E+01 0.140E+02 -.214E+03   0.426E-02 0.740E-02 -.750E-03   0.158E-03 0.217E-03 -.354E-03
   0.996E+01 0.526E+01 0.207E+03   -.997E+01 -.526E+01 -.207E+03   0.413E-02 0.463E-02 0.116E-01   -.238E-03 -.906E-04 -.332E-03
   0.126E+02 0.601E+01 -.210E+03   -.126E+02 -.601E+01 0.210E+03   -.676E-02 -.151E-03 0.151E-03   0.173E-03 0.163E-03 -.900E-04
[...]
   -.322E+01 0.332E+01 0.693E+03   0.322E+01 -.332E+01 -.697E+03   0.591E-04 0.842E-03 0.510E+01   0.495E-04 -.605E-04 0.250E-03
   -.117E+02 0.121E+02 -.284E+03   0.117E+02 -.121E+02 0.288E+03   -.836E-03 -.980E-03 -.507E+01   0.215E-03 -.219E-03 -.130E-02
   0.158E+01 0.540E+01 0.288E+03   -.158E+01 -.540E+01 -.293E+03   0.143E-02 -.171E-02 0.508E+01   0.306E-03 -.471E-03 0.969E-03
   0.477E+00 0.164E+01 -.691E+03   -.478E+00 -.164E+01 0.696E+03   0.810E-03 0.208E-03 -.510E+01   0.171E-03 -.254E-03 -.334E-03
   0.151E+01 0.341E+00 0.691E+03   -.151E+01 -.342E+00 -.696E+03   -.135E-03 0.156E-02 0.510E+01   -.275E-04 -.117E-04 0.281E-03
   0.456E+01 0.131E+01 -.289E+03   -.456E+01 -.131E+01 0.293E+03   -.869E-03 0.214E-02 -.508E+01   -.317E-04 -.491E-04 -.121E-02
   0.236E+02 -.218E+02 0.271E+03   -.236E+02 0.218E+02 -.276E+03   0.624E-03 0.141E-02 0.506E+01   -.622E-03 0.503E-03 0.120E-02
   0.607E+01 -.559E+01 -.696E+03   -.607E+01 0.559E+01 0.701E+03   0.909E-03 -.817E-03 -.510E+01   -.381E-03 0.352E-03 -.225E-03
   0.727E+01 -.523E+01 0.698E+03   -.727E+01 0.523E+01 -.702E+03   0.102E-02 0.642E-03 0.510E+01   -.173E-03 0.124E-03 0.178E-03
   0.294E+02 -.212E+02 -.267E+03   -.294E+02 0.212E+02 0.272E+03   0.153E-02 0.139E-02 -.507E+01   -.476E-03 0.388E-03 -.149E-02
   0.407E+02 -.207E+02 0.210E+03   -.408E+02 0.207E+02 -.215E+03   0.502E-02 -.718E-02 0.503E+01   -.153E-02 0.148E-02 0.182E-02
   0.775E+01 -.378E+01 -.709E+03   -.775E+01 0.378E+01 0.714E+03   0.303E-02 -.321E-02 -.510E+01   -.795E-03 0.112E-02 0.159E-04
   0.930E+00 -.418E+01 -.692E+03   -.929E+00 0.419E+01 0.697E+03   -.865E-03 0.414E-03 -.510E+01   -.121E-03 -.840E-04 -.197E-03
   -.321E+01 -.202E+01 0.286E+03   0.322E+01 0.202E+01 -.291E+03   -.289E-03 -.280E-02 0.508E+01   -.100E-03 -.342E-03 0.926E-03
   -.284E+01 0.713E-01 -.811E+00   0.316E-12 0.830E-12 -.495E-11   0.284E+01 -.863E-01 0.824E+00   -.204E-02 0.137E-01 -.162E-01

 POSITION                                       TOTAL-FORCE (eV/Angst)
      4.51550      4.02991     15.31344        -0.002633      0.001926      0.041148
      3.40977      3.69640     14.48438         0.008501     -0.005041      0.005779
      4.11856      5.07470     16.19996         0.010854     -0.001098      0.006349
      2.74213      5.39485     15.92287        -0.009059     -0.000779      0.016910
      2.30548      4.53372     14.84912        -0.009263     -0.010191      0.012924
      4.65710      6.20904     12.28555         0.005556     -0.005825      0.020748
      3.22910      7.69732     13.35859        -0.000533      0.007445     -0.014050
      3.28688      6.65918     12.36421        -0.008448      0.003352     -0.007868
      4.54198      7.88731     13.87939         0.004103      0.001616     -0.015090
      5.42013      6.97620     13.22915         0.002916      0.001254     -0.040446
      3.85282      5.81488     14.19770         0.003252     -0.009836     -0.006093
      1.31172      4.50949     14.40952        -0.006875     -0.004546     -0.015171
      2.45727      6.30477     11.75644         0.002225      0.004511     -0.011811
      5.04644      5.44803     11.61286        -0.002385      0.003637      0.005233
      2.33544      8.22981     13.67484        -0.002731      0.007616      0.008937
      4.81213      8.56139     14.68964         0.003454      0.002000     -0.002238
      3.41863      2.96568     13.67913        -0.003145     -0.005241     -0.013559
      5.51546      3.60837     15.23744         0.006331     -0.007783      0.001607
      4.74964      5.55320     16.94601        -0.006459     -0.006279      0.000173
      2.13402      6.12287     16.45471        -0.004771     -0.002986      0.014333
      6.48020      6.85694     13.44071         0.010943     -0.001129     -0.000216
      4.77031      8.26262     21.28500        -0.001253     -0.002031      0.008603
     -3.18000     11.01584      7.09500        -0.000980      0.001511      0.002940
     -1.58997      8.26182     21.28500        -0.000009     -0.000696     -0.002492
      3.18000     11.01584      7.09500        -0.001040      0.000819      0.000383
     -1.59000      8.26188      7.09500         0.001025      0.001061      0.002288
      3.17999     11.01614     21.28500         0.000192     -0.000366     -0.002658
      0.00000      5.50792      7.09500        -0.000323     -0.004705     -0.002249
     12.72000      0.00000      7.09500        -0.001306     -0.000567      0.001546
      1.59043      2.75439     21.28500        -0.002425     -0.001969      0.008111
     12.72009      0.00017     21.28500         0.000810     -0.000142     -0.000974
      1.59000      2.75396      7.09500        -0.003536      0.000178      0.002583
     -3.18010     11.01586     21.28500        -0.000056      0.000765     -0.001645
      0.00019      5.50751     21.28500         0.000411      0.000860     -0.005830
      4.77000      8.26188      7.09500        -0.003323     -0.010747      0.004817
      1.59000      8.26188      7.09500         0.006935      0.001653      0.009000
      6.35950      0.00027     21.28500         0.001494      0.000338     -0.001160
      6.35994      5.50788     21.28500        -0.001119      0.001937     -0.009718
      4.77000      2.75396      7.09500        -0.001313     -0.001475      0.005826
      6.36000      5.50792      7.09500        -0.012770      0.007040     -0.003140
      4.76919      2.75439     21.28500         0.003071     -0.001713     -0.000104
      3.18000      5.50792      7.09500         0.012251      0.010189      0.004390
      7.94987      2.75427     21.28500        -0.001282     -0.000893     -0.000186
      3.17995      5.50696     21.28500         0.001939      0.006275     -0.027005
      7.95000      2.75396      7.09500         0.004813     -0.000686      0.001188
      0.00004     11.01585     21.28500        -0.000581      0.000291     -0.002858
      1.59016      8.26163     21.28500         0.000072     -0.000056      0.000366
      9.54046      0.00005     21.28500        -0.002656      0.001030     -0.002132
     -0.00000     11.01584      7.09500         0.000339      0.001336      0.002989
      9.54000      0.00000      7.09500        -0.001332     -0.000856      0.000113
      6.36000      0.00000      7.09500         0.001133      0.000157      0.001208
     11.13000      2.75396      7.09500         0.001694     -0.001710      0.004380
      3.17988      0.00023     21.28500        -0.000409      0.000048     -0.000448
      3.18000      0.00000      7.09500         0.001297      0.000165      0.003585
      0.00000      0.00000      7.09500         0.000187     -0.000251     -0.005616
      6.36012     11.01605     21.28500         0.000138      0.001198     -0.001298
      0.00009      0.00016     21.28500         0.000660      0.000795     -0.005286
      6.36000     11.01584      7.09500         0.000237      0.000342      0.001730
     -1.59000      2.75396      7.09500        -0.001600     -0.000110      0.002844
     -1.58992      2.75400     21.28500         0.000980     -0.000360      0.001462
[...]
      7.95003     11.93385     22.88000         0.000353      0.001281     -0.586468
      7.95000      0.91799      5.50000         0.000201      0.001065      0.586553
      7.95000      0.91799      8.69000         0.001096     -0.000132     -0.586684
     -1.59023     11.93409     19.69000         0.000081      0.000438      0.587994
     -1.59008     11.93391     22.88000        -0.000191      0.000808     -0.587980
     -1.59000     11.93383      5.50000         0.000282      0.000129      0.586826
     -1.59000     11.93383      8.69000         0.000107     -0.000145     -0.587479
      0.00000      9.17970     19.69000         0.000581     -0.000065      0.585368
      0.00009      9.17977     22.88000         0.000413     -0.000482     -0.587025
      0.00000      9.17987      5.50000         0.000531     -0.000112      0.587325
      0.00000      9.17987      8.69000         0.002046      0.000131     -0.583689
      1.59040      6.42521     19.69000        -0.000204      0.000602      0.570876
      1.59019      6.42557     22.88000         0.000449     -0.000548     -0.586271
      1.59008     11.93388     22.88000        -0.000336      0.000568     -0.586507
      7.95019     11.93407     19.69000         0.000046      0.000886      0.585701
    total drift:                               -0.002113     -0.001297     -0.003205

  FREE ENERGIE OF THE ION-ELECTRON SYSTEM (eV)
  free  energy   TOTEN  =     -1253.24183404 eV

  energy  without entropy=    -1253.11167262  energy(sigma->0) =    -1253.17675333

 d Force = 0.3129792E-04[ 0.116E-04, 0.510E-04]  d Energy =-0.3920972E-04 0.705E-04
 d Force =-0.2371150E-01[-0.237E-01,-0.237E-01]  d Ewald  =-0.2371138E-01-0.116E-06

 Conjugate gradient step on ions:
 trial-energy change:    0.000039  1 .order   -0.000031   -0.000051   -0.000012
  (g-gl).g = 0.811E-04      g.g   = 0.148E-03  gl.gl    = 0.213E-03
 g(Force)  = 0.148E-03   g(Stress)= 0.000E+00 ortho     =-0.581E-05
 gamma     =   0.37991
 trial     =   0.34961
 opt step  =   0.45280  (harmonic =   0.45280) maximal distance =0.00034330
 next E    = -1253.241906   (d E  =  -0.00003)

 reached required accuracy - stopping structural energy minimisation