 vasp.5.4.4.18Apr17-6-g9f103f2a35 (build Oct 28 2020 13:00:36) gamma-only

 executed on             LinuxIFC date 2020.12.03  21:33:07

 INCAR:
 POTCAR:    PAW_PBE C 08Apr2002
 POTCAR:    PAW_PBE Cr 06Sep2000
 POTCAR:    PAW_PBE H 15Jun2001
 POTCAR:    PAW_PBE Mo 08Apr2002
 POTCAR:    PAW_PBE S 06Sep2000
 POTCAR:    PAW_PBE C 08Apr2002
   VRHFIN =C: s2p2

   TITEL  = PAW_PBE C 08Apr2002
   POMASS =   12.011; ZVAL   =    4.000    mass and valenz
   ENMAX  =  400.000; ENMIN  =  300.000 eV

 POTCAR:    PAW_PBE Cr 06Sep2000
   VRHFIN =Cr : d5 s1

   TITEL  = PAW_PBE Cr 06Sep2000
   POMASS =   51.996; ZVAL   =    6.000    mass and valenz
   ENMAX  =  227.080; ENMIN  =  170.310 eV

 POTCAR:    PAW_PBE H 15Jun2001
   VRHFIN =H: ultrasoft test

   TITEL  = PAW_PBE H 15Jun2001
   POMASS =    1.000; ZVAL   =    1.000    mass and valenz
   ENMAX  =  250.000; ENMIN  =  200.000 eV

 POTCAR:    PAW_PBE Mo 08Apr2002
   VRHFIN =Mo: 4p5s4d

   TITEL  = PAW_PBE Mo 08Apr2002
   POMASS =   95.940; ZVAL   =    6.000    mass and valenz
   ENMAX  =  224.584; ENMIN  =  168.438 eV

 POTCAR:    PAW_PBE S 06Sep2000
   VRHFIN =S : s2p4

   TITEL  = PAW_PBE S 06Sep2000
   POMASS =   32.066; ZVAL   =    6.000    mass and valenz
   ENMAX  =  258.689; ENMIN  =  194.016 eV

 Optimization of the real space projectors (new method)

 maximal supplied QI-value         = 25.13
 optimisation between [QCUT,QGAM] = [ 10.05, 20.36] = [ 28.30,116.06] Ry
 Optimized for a Real-space Cutoff    1.51 Angstroem

   l    n(q)    QCUT    max X(q) W(low)/X(q) W(high)/X(q)  e(spline)
   0      9    10.053   115.676    0.19E-03    0.21E-03    0.38E-06
   0      9    10.053    87.132    0.19E-03    0.21E-03    0.38E-06
   1      9    10.053     4.429    0.87E-04    0.11E-03    0.39E-06
   1      9    10.053     2.733    0.59E-04    0.62E-04    0.43E-06
 Optimization of the real space projectors (new method)

[...]

   l    n(q)    QCUT    max X(q) W(low)/X(q) W(high)/X(q)  e(spline)
   2      9    10.205    80.908    0.21E-03    0.30E-03    0.60E-06
   2      9    10.205    79.000    0.21E-03    0.30E-03    0.60E-06
   0     10    10.205    52.066    0.39E-04    0.38E-04    0.19E-06
   0     10    10.205    24.514    0.33E-04    0.32E-04    0.16E-06
   1     10    10.205    16.033    0.64E-04    0.17E-03    0.19E-06
   1     10    10.205    11.179    0.49E-04    0.13E-03    0.15E-06
 Optimization of the real space projectors (new method)

 maximal supplied QI-value         = 19.84
 optimisation between [QCUT,QGAM] = [ 10.12, 20.44] = [ 28.68,116.96] Ry
 Optimized for a Real-space Cutoff    1.42 Angstroem

   l    n(q)    QCUT    max X(q) W(low)/X(q) W(high)/X(q)  e(spline)
   0      9    10.119   187.594    0.52E-04    0.93E-04    0.64E-07
   0      9    10.119   164.243    0.51E-04    0.92E-04    0.63E-07
   1      8    10.119    67.533    0.16E-03    0.17E-03    0.23E-06
   1      8    10.119    50.729    0.16E-03    0.16E-03    0.23E-06
  PAW_PBE C 08Apr2002                   :
  PAW_PBE Cr 06Sep2000                  :
  PAW_PBE H 15Jun2001                   :
  PAW_PBE Mo 08Apr2002                  :
  PAW_PBE S 06Sep2000                   :

 POSCAR:  C Cr  H Mo  S
  positions in cartesian coordinates
 exchange correlation table for  LEXCH =        8
   RHO(1)=    0.500       N(1)  =     2000
   RHO(2)=  100.500       N(2)  =     4000

 ion  position               nearest neighbor table
   1  0.520  0.374  0.485-  18 1.09   2 1.42   3 1.43  11 2.20
   2  0.444  0.384  0.503-  17 1.09   1 1.42   5 1.43  11 2.18
   3  0.589  0.465  0.468-  19 1.09   1 1.43   4 1.44  11 2.15
   4  0.556  0.533  0.475-  20 1.09   3 1.44   5 1.44  11 2.09
   5  0.465  0.482  0.497-  12 1.09   2 1.43   4 1.44  11 2.11
   6  0.333  0.317  0.404-  14 1.09  10 1.44   8 1.44  11 2.11
   7  0.407  0.482  0.389-  15 1.09   9 1.43   8 1.44  11 2.15
   8  0.326  0.403  0.410-  13 1.09   7 1.44   6 1.44  11 2.10
   9  0.462  0.444  0.371-  16 1.09  10 1.42   7 1.43  11 2.20
  10  0.418  0.343  0.380-  21 1.09   9 1.42   6 1.44  11 2.18
  11  0.453  0.421  0.438-   4 2.09   8 2.10   5 2.11   6 2.11   3 2.15   7 2.15  10 2.18   2 2.18
                             1 2.20   9 2.20
  12  0.421  0.512  0.508-   5 1.09
  13  0.268  0.407  0.427-   8 1.09
  14  0.281  0.244  0.415-   6 1.09
  15  0.424  0.557  0.389-   7 1.09
  16  0.531  0.487  0.354-   9 1.09
  17  0.379  0.326  0.518-   2 1.09
  18  0.523  0.307  0.483-   1 1.09
  19  0.655  0.480  0.452-   3 1.09
  20  0.594  0.610  0.467-   4 1.09
  21  0.445  0.296  0.370-  10 1.09
  22  0.600  0.600  0.657-  97 2.43 148 2.43 144 2.43  98 2.43 149 2.43 145 2.43  56 3.18  27 3.18
                            61 3.18  44 3.18  38 3.18  47 3.18
  23  0.200  0.800  0.219- 126 2.43 162 2.43 121 2.43 139 2.43 163 2.43 122 2.43  26 3.18  49 3.18
                            51 3.18  64 3.18  54 3.18  70 3.18
  24  0.200  0.600  0.657- 164 2.43 127 2.43 123 2.43 128 2.43 165 2.43 124 2.43  46 3.18  33 3.18
                            47 3.18  63 3.18  34 3.18  66 3.18
  25  0.600  0.800  0.219-  92 2.43 146 2.43 112 2.43  94 2.43 147 2.43 143 2.43  35 3.18  58 3.18
                            29 3.18  36 3.18  50 3.18  49 3.18
  26  0.200  0.600  0.219- 166 2.43 129 2.43 126 2.43 130 2.43 167 2.43 139 2.43  49 3.18  36 3.18
                            23 3.18  62 3.18  28 3.18  64 3.18
  27  0.600  0.800  0.657-  96 2.43 144 2.43 110 2.43  93 2.43 145 2.43 170 2.43  22 3.18  56 3.18
                            31 3.18  47 3.18  48 3.18  46 3.18
  28  0.200  0.400  0.219- 133 2.43 142 2.43 129 2.43 141 2.43 134 2.43 130 2.43  32 3.18  42 3.18
                            36 3.18  59 3.18  26 3.18  62 3.18
  29  0.800  0.000  0.219-  72 2.43  84 2.43  92 2.43  94 2.43 108 2.43  86 2.43  50 3.18  25 3.18
                            59 3.18  58 3.18  52 3.18  55 3.18
  30  0.200  0.200  0.657- 140 2.43 135 2.43 131 2.43 136 2.43 125 2.43 132 2.43  44 3.18  41 3.18
                            34 3.18  57 3.18  53 3.18  60 3.18
  31  0.800  0.000  0.657-  80 2.43  85 2.43  96 2.43  93 2.43  82 2.43  81 2.43  48 3.18  27 3.18
                            60 3.18  56 3.18  71 3.18  57 3.18
  32  0.200  0.200  0.219- 113 2.43 137 2.43 133 2.43 114 2.43 138 2.43 134 2.43  42 3.18  39 3.18
                            28 3.18  55 3.18  54 3.18  59 3.18
  33  0.200  0.800  0.657- 123 2.43 160 2.43 119 2.43 124 2.43 161 2.43 120 2.43  24 3.18  46 3.18
                            37 3.18  66 3.18  53 3.18  69 3.18
  34  0.200  0.400  0.657- 131 2.43 168 2.43 127 2.43 132 2.43 169 2.43 128 2.43  30 3.18  44 3.18
                            47 3.18  60 3.18  24 3.18  63 3.18
  35  0.600  0.600  0.219- 100 2.43 150 2.43 146 2.43 102 2.43 151 2.43 147 2.43  58 3.18  25 3.18
                            67 3.18  42 3.18  40 3.18  36 3.18
  36  0.400  0.600  0.219- 166 2.43 146 2.43 142 2.43 167 2.43 141 2.43 147 2.43  26 3.18  49 3.18
                            28 3.18  25 3.18  42 3.18  35 3.18
  37  0.400  0.000  0.657- 115 2.43 156 2.43 160 2.43 111 2.43 161 2.43 116 2.43  53 3.18  33 3.18
                            43 3.18  46 3.18  41 3.18  48 3.18
  38  0.600  0.400  0.657- 105 2.43 152 2.43 148 2.43 106 2.43 153 2.43 149 2.43  43 3.18  65 3.18
                            61 3.18  41 3.18  22 3.18  44 3.18
  39  0.400  0.200  0.219- 113 2.43 154 2.43 117 2.43 114 2.43 118 2.43 155 2.43  32 3.18  42 3.18
                            54 3.18  40 3.18  51 3.18  45 3.18
  40  0.600  0.400  0.219-  91 2.43 154 2.43 150 2.43  90 2.43 155 2.43 151 2.43  45 3.18  68 3.18
                            67 3.18  39 3.18  35 3.18  42 3.18
  41  0.400  0.200  0.657- 140 2.43 152 2.43 115 2.43 125 2.43 116 2.43 153 2.43  30 3.18  44 3.18
                            53 3.18  38 3.18  37 3.18  43 3.18
  42  0.400  0.400  0.219- 113 2.43 142 2.43 150 2.43 114 2.43 151 2.43 141 2.43  32 3.18  28 3.18
                            39 3.18  35 3.18  36 3.18  40 3.18
  43  0.600  0.200  0.657-  73 2.43 156 2.43 152 2.43  74 2.43 111 2.43 153 2.43  65 3.18  38 3.18
                            71 3.18  37 3.18  48 3.18  41 3.18
  44  0.400  0.400  0.657- 140 2.43 148 2.43 168 2.43 149 2.43 125 2.43 169 2.43  30 3.18  34 3.18
                            41 3.18  22 3.18  47 3.18  38 3.18
  45  0.600  0.200  0.219-  77 2.43 158 2.43 154 2.43  78 2.43 159 2.43 155 2.43  68 3.18  52 3.18
                            40 3.18  51 3.18  50 3.18  39 3.18
  46  0.400  0.800  0.657- 110 2.43 160 2.43 164 2.43 165 2.43 170 2.43 161 2.43  24 3.18  33 3.18
                            47 3.18  48 3.18  37 3.18  27 3.18
  47  0.400  0.600  0.657- 164 2.43 144 2.43 168 2.43 165 2.43 145 2.43 169 2.43  24 3.18  46 3.18
                            34 3.18  27 3.18  44 3.18  22 3.18
  48  0.600  0.000  0.657-  80 2.43 110 2.43 156 2.43  81 2.43 170 2.43 111 2.43  31 3.18  71 3.18
                            46 3.18  27 3.18  43 3.18  37 3.18
  49  0.400  0.800  0.219- 112 2.43 162 2.43 166 2.43 143 2.43 167 2.43 163 2.43  26 3.18  23 3.18
                            36 3.18  50 3.18  51 3.18  25 3.18
  50  0.600  0.000  0.219-  84 2.43 112 2.43 158 2.43 143 2.43  86 2.43 159 2.43  29 3.18  52 3.18
                            49 3.18  25 3.18  45 3.18  51 3.18
  51  0.400  0.000  0.219- 117 2.43 158 2.43 162 2.43 159 2.43 163 2.43 118 2.43  54 3.18  23 3.18
                            45 3.18  49 3.18  39 3.18  50 3.18
  52  0.800  0.200  0.219-  77 2.43  87 2.43  84 2.43  78 2.43  86 2.43 104 2.43  45 3.18  68 3.18
                            50 3.18  62 3.18  29 3.18  59 3.18
  53  0.200  0.000  0.657- 115 2.43 119 2.43 135 2.43 120 2.43 116 2.43 136 2.43  37 3.18  41 3.18
                            69 3.18  33 3.18  30 3.18  57 3.18
  54  0.200  0.000  0.219- 117 2.43 121 2.43 137 2.43 122 2.43 118 2.43 138 2.43  51 3.18  39 3.18
                            70 3.18  32 3.18  23 3.18  55 3.18
  55  0.000  0.000  0.219-  83 2.43 137 2.43  72 2.43  89 2.43 138 2.43 108 2.43  32 3.18  58 3.18
                            59 3.18  70 3.18  54 3.18  29 3.18
  56  0.800  0.800  0.657-  96 2.43  97 2.43 171 2.43  98 2.43  93 2.43 157 2.43  22 3.18  27 3.18
                            61 3.18  57 3.18  31 3.18  69 3.18
  57  0.000  0.000  0.657- 135 2.43 171 2.43  85 2.43 157 2.43 136 2.43  82 2.43  30 3.18  56 3.18
                            60 3.18  69 3.18  53 3.18  31 3.18
  58  0.800  0.800  0.219-  92 2.43 100 2.43  83 2.43 102 2.43  94 2.43  89 2.43  35 3.18  25 3.18
                            67 3.18  55 3.18  29 3.18  70 3.18
  59  0.000  0.200  0.219- 133 2.43  72 2.43  87 2.43 108 2.43 134 2.43 104 2.43  62 3.18  28 3.18
                            29 3.18  55 3.18  32 3.18  52 3.18
  60  0.000  0.200  0.657- 131 2.43  85 2.43 103 2.43  82 2.43 132 2.43  88 2.43  63 3.18  34 3.18
                            31 3.18  57 3.18  30 3.18  71 3.18
  61  0.800  0.600  0.657-  97 2.43 105 2.43  76 2.43  98 2.43 106 2.43  75 2.43  22 3.18  56 3.18
                            38 3.18  69 3.18  65 3.18  66 3.18
  62  0.000  0.400  0.219-  87 2.43  95 2.43 129 2.43 104 2.43 130 2.43  79 2.43  59 3.18  52 3.18
                            26 3.18  64 3.18  28 3.18  68 3.18
[...]
   -.261E+03 -.757E+02 0.795E+02   0.265E+03 0.772E+02 -.780E+02   -.370E+01 -.145E+01 -.145E+01   0.248E-01 0.296E-02 0.151E-02
   -.582E+02 -.259E+03 0.455E+02   0.594E+02 0.262E+03 -.437E+02   -.119E+01 -.361E+01 -.181E+01   0.734E-02 0.270E-01 0.718E-02
   0.145E+03 -.122E+03 -.323E+02   -.146E+03 0.124E+03 0.359E+02   0.126E+01 -.197E+01 -.361E+01   -.139E-01 0.143E-01 0.180E-01
   0.113E+03 0.244E+03 -.586E+02   -.116E+03 -.247E+03 0.571E+02   0.219E+01 0.326E+01 0.152E+01   -.269E-02 -.247E-01 -.757E-02
   0.138E+03 -.198E+03 -.870E+01   -.141E+03 0.200E+03 0.588E+01   0.260E+01 -.198E+01 0.279E+01   -.323E-02 0.196E-01 -.108E-01
   0.271E+03 0.147E+02 -.768E+02   -.275E+03 -.151E+02 0.757E+02   0.408E+01 0.466E+00 0.102E+01   -.215E-01 -.178E-02 -.228E-02
   -.941E+02 -.981E+02 0.508E+02   0.943E+02 0.989E+02 -.552E+02   -.116E+00 -.807E+00 0.443E+01   0.136E-01 0.936E-03 -.190E-01
   -.111E+03 0.171E+03 0.199E+02   0.111E+03 -.174E+03 -.235E+02   -.266E+00 0.243E+01 0.352E+01   0.212E-01 -.100E-01 -.153E-01
   -.209E+02 0.129E+02 0.719E+01   0.203E+02 -.126E+02 -.695E+01   0.585E+00 -.299E+00 -.228E+00   0.490E-02 -.611E-02 -.568E-02
   0.692E+02 -.396E+02 0.135E+00   -.743E+02 0.418E+02 0.173E+01   0.503E+01 -.222E+01 -.185E+01   -.761E-03 0.190E-02 0.902E-03
   0.892E+02 -.695E+00 -.340E+02   -.943E+02 0.101E+01 0.368E+02   0.505E+01 -.318E+00 -.283E+01   -.200E-02 -.296E-03 0.288E-03
   0.288E+02 0.873E+02 -.281E+02   -.301E+02 -.926E+02 0.300E+02   0.124E+01 0.533E+01 -.191E+01   0.818E-03 -.186E-02 -.736E-03
   0.373E+02 -.823E+02 -.133E+02   -.390E+02 0.879E+02 0.132E+02   0.174E+01 -.554E+01 0.137E+00   -.140E-03 0.105E-02 -.329E-03
   -.521E+02 -.445E+02 0.372E+01   0.561E+02 0.477E+02 -.656E+01   -.400E+01 -.313E+01 0.288E+01   0.442E-03 -.770E-03 -.555E-03
   0.380E+02 0.619E+02 -.235E+01   -.410E+02 -.661E+02 0.485E+01   0.306E+01 0.427E+01 -.250E+01   -.404E-03 -.764E-03 0.114E-02
   -.564E+02 0.718E+02 0.187E+02   0.595E+02 -.767E+02 -.190E+02   -.306E+01 0.493E+01 0.329E+00   -.625E-03 -.770E-03 -.538E-03
   -.859E+02 -.216E+02 0.353E+02   0.909E+02 0.227E+02 -.381E+02   -.496E+01 -.112E+01 0.279E+01   0.109E-02 -.566E-03 0.210E-03
   -.889E+01 -.924E+02 0.242E+02   0.886E+01 0.980E+02 -.256E+02   0.349E-01 -.561E+01 0.143E+01   0.555E-03 0.110E-02 0.667E-03
   -.578E+02 0.586E+02 -.449E+01   0.621E+02 -.621E+02 0.287E+01   -.433E+01 0.351E+01 0.160E+01   0.438E-03 0.754E-03 0.390E-03
   -.571E+01 -.206E+02 -.243E+03   0.572E+01 0.206E+02 0.243E+03   -.597E-02 0.238E-01 0.202E-01   0.339E-03 0.116E-04 0.297E-02
   0.229E+01 0.141E+01 0.201E+03   -.229E+01 -.141E+01 -.201E+03   -.209E-02 0.634E-03 0.854E-02   -.360E-04 0.144E-03 -.138E-02
   0.124E+02 -.585E+01 -.208E+03   -.124E+02 0.585E+01 0.208E+03   0.255E-02 0.952E-03 -.120E-01   -.324E-03 0.411E-04 0.163E-02
   0.122E+01 -.180E+02 0.213E+03   -.122E+01 0.180E+02 -.213E+03   0.336E-02 0.160E-02 0.125E-01   -.140E-04 0.195E-03 -.155E-02
   0.141E+02 -.734E+01 0.210E+03   -.141E+02 0.733E+01 -.210E+03   -.167E-02 0.666E-02 0.823E-02   -.199E-03 0.138E-03 -.158E-02
   0.311E+01 -.183E+02 -.214E+03   -.311E+01 0.183E+02 0.214E+03   -.379E-02 0.472E-02 -.659E-02   0.147E-03 -.557E-03 0.156E-02
   0.231E+02 0.136E+01 0.230E+03   -.231E+02 -.136E+01 -.230E+03   -.766E-02 -.829E-03 -.784E-02   -.110E-03 -.533E-04 -.181E-02
   0.181E+01 -.320E+01 0.202E+03   -.180E+01 0.321E+01 -.202E+03   -.357E-02 -.564E-02 0.933E-02   -.757E-04 0.616E-04 -.143E-02
   0.139E+02 0.174E+02 -.225E+03   -.139E+02 -.175E+02 0.225E+03   0.359E-02 0.174E-02 -.121E-01   -.141E-04 -.146E-03 0.187E-02
   0.903E+00 -.468E+01 -.202E+03   -.904E+00 0.468E+01 0.202E+03   0.715E-03 0.330E-02 -.723E-02   -.324E-05 -.393E-03 0.142E-02
   0.129E+02 0.192E+02 0.231E+03   -.129E+02 -.192E+02 -.230E+03   -.101E-02 -.648E-02 -.647E-02   0.149E-03 -.167E-03 -.163E-02
   0.151E+01 0.131E+01 -.201E+03   -.151E+01 -.131E+01 0.201E+03   0.835E-03 0.962E-03 -.818E-02   -.135E-03 0.513E-04 0.146E-02
   0.218E+02 0.215E+01 -.224E+03   -.218E+02 -.215E+01 0.224E+03   0.136E-02 -.927E-03 -.150E-01   0.897E-03 0.376E-03 0.174E-02
   -.963E+01 -.205E+02 0.239E+03   0.963E+01 0.205E+02 -.239E+03   0.307E-02 -.378E-02 0.145E-01   0.156E-03 -.137E-03 -.161E-02
   0.142E+02 -.184E+02 0.234E+03   -.142E+02 0.184E+02 -.234E+03   0.550E-02 0.148E-01 0.204E-02   0.328E-04 0.110E-03 -.176E-02
   -.356E+01 0.111E+02 -.207E+03   0.357E+01 -.111E+02 0.207E+03   -.435E-02 0.421E-03 -.122E-01   0.182E-03 0.143E-03 0.137E-02
   -.204E+02 0.371E+01 -.245E+03   0.203E+02 -.369E+01 0.245E+03   0.181E-01 -.180E-01 0.199E-01   0.852E-03 -.470E-03 0.287E-02
   -.884E+01 0.215E+02 0.235E+03   0.882E+01 -.215E+02 -.235E+03   0.139E-01 -.254E-02 0.630E-02   0.213E-03 -.184E-04 -.129E-02
   -.225E+02 0.168E+01 0.239E+03   0.225E+02 -.168E+01 -.239E+03   0.831E-03 0.180E-02 0.146E-01   0.260E-04 -.153E-03 -.134E-02
   -.474E+01 0.229E+02 -.234E+03   0.476E+01 -.229E+02 0.234E+03   -.152E-01 -.245E-02 -.245E-01   0.193E-03 -.437E-03 0.153E-02
   0.449E+01 0.233E+01 0.259E+03   -.451E+01 -.234E+01 -.259E+03   0.261E-01 0.135E-01 0.227E-01   0.375E-03 -.112E-03 -.157E-02
   -.152E+02 0.124E+02 -.216E+03   0.152E+02 -.124E+02 0.216E+03   0.214E-02 -.639E-02 -.549E-02   -.644E-03 0.564E-03 0.130E-02
   0.103E+02 0.445E+01 -.256E+03   -.103E+02 -.443E+01 0.256E+03   -.325E-01 -.235E-01 -.238E-01   0.151E-02 -.487E-03 0.202E-02
   -.151E+02 0.101E+02 0.214E+03   0.151E+02 -.101E+02 -.214E+03   -.360E-03 0.199E-02 0.143E-01   -.555E-04 -.510E-06 -.126E-02
   0.704E+01 -.761E+01 -.206E+03   -.703E+01 0.761E+01 0.206E+03   -.226E-02 -.380E-02 -.121E-01   -.165E-03 0.339E-03 0.147E-02
   0.171E+02 -.158E+02 -.232E+03   -.171E+02 0.158E+02 0.232E+03   -.912E-02 -.776E-02 -.169E-01   -.129E-03 -.218E-03 0.202E-02
   -.262E+01 -.746E+00 -.203E+03   0.262E+01 0.746E+00 0.203E+03   -.195E-02 -.521E-03 -.105E-01   -.265E-03 0.290E-03 0.124E-02
   0.642E+01 -.896E+01 0.207E+03   -.642E+01 0.896E+01 -.207E+03   -.531E-03 0.239E-02 0.945E-02   -.116E-03 0.249E-03 -.146E-02
   -.273E+01 -.144E+01 0.202E+03   0.273E+01 0.144E+01 -.202E+03   -.267E-02 -.517E-03 0.861E-02   -.868E-04 0.109E-03 -.134E-02
   -.465E+01 0.103E+02 0.207E+03   0.465E+01 -.103E+02 -.207E+03   0.286E-02 -.848E-03 0.839E-02   -.146E-04 0.567E-04 -.130E-02
   -.199E+01 0.323E+01 0.202E+03   0.200E+01 -.323E+01 -.202E+03   -.460E-02 -.760E-03 0.106E-01   -.118E-03 -.206E-04 -.136E-02
   0.157E+01 0.144E+02 -.209E+03   -.157E+01 -.144E+02 0.209E+03   0.137E-02 0.210E-02 -.106E-01   0.257E-03 -.119E-03 0.154E-02
   0.777E+00 0.161E+02 0.210E+03   -.783E+00 -.161E+02 -.211E+03   0.503E-02 -.479E-02 0.100E-01   0.152E-03 -.870E-04 -.141E-02
   0.480E+01 0.712E+01 0.206E+03   -.479E+01 -.712E+01 -.206E+03   -.172E-02 -.823E-02 -.150E-02   0.248E-04 -.938E-04 -.151E-02
   -.619E+01 -.148E+02 -.212E+03   0.619E+01 0.148E+02 0.212E+03   0.203E-02 0.116E-01 -.680E-03   -.217E-04 -.525E-03 0.165E-02
   0.371E+01 0.422E+01 -.205E+03   -.372E+01 -.423E+01 0.205E+03   0.397E-02 0.509E-02 -.151E-01   -.190E-03 -.255E-03 0.151E-02
   -.599E+01 -.120E+02 0.209E+03   0.599E+01 0.120E+02 -.209E+03   -.150E-02 -.554E-02 0.154E-01   0.704E-04 0.691E-04 -.154E-02
   0.130E+02 0.749E+01 0.209E+03   -.130E+02 -.748E+01 -.209E+03   -.989E-02 -.470E-02 0.323E-03   -.185E-03 -.108E-03 -.156E-02
   0.104E+02 0.594E+01 -.206E+03   -.104E+02 -.594E+01 0.206E+03   0.559E-02 0.365E-02 -.109E-01   0.125E-04 -.631E-04 0.157E-02
[...]
   -.420E+01 0.382E+01 0.693E+03   0.420E+01 -.382E+01 -.697E+03   0.580E-03 0.969E-03 0.510E+01   -.377E-04 -.856E-05 -.306E-03
   -.145E+02 0.139E+02 -.285E+03   0.145E+02 -.139E+02 0.289E+03   0.302E-03 -.711E-03 -.507E+01   -.835E-04 0.724E-04 -.183E-02
   0.360E+01 0.326E+01 0.291E+03   -.360E+01 -.326E+01 -.295E+03   0.492E-03 -.158E-03 0.507E+01   -.929E-05 0.202E-03 0.191E-02
   0.119E+01 0.110E+01 -.690E+03   -.119E+01 -.110E+01 0.695E+03   0.985E-03 0.257E-04 -.510E+01   -.109E-03 0.402E-05 0.536E-03
   0.106E+01 0.685E+00 0.691E+03   -.106E+01 -.686E+00 -.695E+03   -.401E-03 0.377E-03 0.510E+01   -.439E-04 0.117E-03 -.340E-03
   0.327E+01 0.211E+01 -.290E+03   -.327E+01 -.211E+01 0.295E+03   -.110E-02 -.869E-04 -.507E+01   -.864E-04 0.250E-03 -.196E-02
   0.278E+02 -.220E+02 0.271E+03   -.278E+02 0.220E+02 -.276E+03   -.191E-02 0.197E-02 0.505E+01   -.101E-02 0.340E-03 0.231E-02
   0.725E+01 -.562E+01 -.697E+03   -.725E+01 0.562E+01 0.701E+03   -.705E-03 0.731E-03 -.510E+01   -.674E-03 -.116E-03 0.807E-03
   0.696E+01 -.660E+01 0.698E+03   -.696E+01 0.660E+01 -.702E+03   -.612E-03 -.104E-02 0.510E+01   -.768E-04 0.135E-03 -.542E-03
   0.278E+02 -.266E+02 -.268E+03   -.278E+02 0.266E+02 0.272E+03   -.112E-02 -.981E-03 -.506E+01   -.283E-03 0.445E-03 -.232E-02
   0.505E+02 -.969E+01 0.212E+03   -.505E+02 0.969E+01 -.217E+03   0.894E-02 -.587E-03 0.503E+01   -.360E-02 0.164E-03 0.334E-02
   0.955E+01 -.194E+01 -.709E+03   -.955E+01 0.194E+01 0.714E+03   0.577E-02 0.452E-04 -.510E+01   -.179E-02 0.241E-03 0.106E-02
   0.173E+01 -.506E+01 -.693E+03   -.172E+01 0.506E+01 0.697E+03   -.416E-03 -.903E-04 -.510E+01   -.208E-03 0.242E-03 0.825E-03
   -.629E+01 -.833E+01 0.288E+03   0.628E+01 0.833E+01 -.292E+03   0.223E-02 0.253E-02 0.508E+01   0.359E-03 0.816E-03 0.186E-02
   -.247E+01 0.143E+01 0.969E+00   0.534E-12 -.117E-12 -.421E-11   0.242E+01 -.141E+01 -.978E+00   0.423E-01 -.141E-01 0.180E-02

 POSITION                                       TOTAL-FORCE (eV/Angst)
      5.29680      5.15116     15.71483         0.016789     -0.004430      0.054269
      4.00544      5.28268     16.29587        -0.001602     -0.016678      0.007409
      5.67204      6.40785     15.15455         0.007361      0.001014      0.028021
      4.60012      7.33976     15.39379        -0.004914      0.008803      0.023344
      3.56117      6.63170     16.10440        -0.008285      0.000727      0.018706
      2.76764      4.36233     13.08574        -0.007640     -0.015483     -0.011981
      2.63720      6.63431     12.61109        -0.008709      0.015740     -0.034903
      1.97231      5.55197     13.28476        -0.012642      0.000307     -0.010504
      3.81764      6.11920     12.00275         0.017242      0.009761      0.017971
      3.90609      4.72910     12.29281        -0.005953     -0.002656     -0.050685
      3.84861      5.80272     14.18470        -0.012438      0.012613      0.008089
      2.61869      7.04879     16.45138        -0.001477     -0.004705      0.015262
      1.02453      5.61148     13.81378        -0.001422      0.003196      0.007854
      2.53344      3.36252     13.44326        -0.007049      0.004127      0.005254
      2.31085      7.67157     12.58627         0.001561     -0.002535     -0.005371
      4.56415      6.70396     11.47042        -0.007582     -0.002134      0.032656
      3.43337      4.48306     16.76184         0.010477      0.002315      0.014518
      5.86986      4.22835     15.65085         0.006220      0.003814      0.003387
      6.60179      6.61811     14.63074        -0.005631      0.003924     -0.000942
      4.59396      8.39379     15.12663        -0.003564     -0.004014      0.000427
      4.71885      4.07021     11.99397        -0.002734     -0.002495     -0.012128
      4.77014      8.26132     21.28500         0.000310      0.002886      0.008526
     -3.18000     11.01584      7.09500        -0.002142      0.000242      0.002777
     -1.58990      8.26188     21.28500         0.000384      0.000074     -0.003116
      3.18000     11.01584      7.09500         0.003842      0.006459     -0.000124
     -1.59000      8.26188      7.09500        -0.000260     -0.000500      0.003311
      3.18004     11.01559     21.28500         0.000577     -0.000316     -0.001119
      0.00000      5.50792      7.09500         0.003580     -0.001206      0.001114
     12.72000      0.00000      7.09500        -0.000535     -0.000818      0.002836
      1.59001      2.75389     21.28500         0.000093      0.000355      0.006394
     12.71998     -0.00005     21.28500         0.000179     -0.001403     -0.001097
      1.59000      2.75396      7.09500         0.002515      0.003001     -0.001028
     -3.18000     11.01591     21.28500        -0.000627     -0.000208     -0.002243
      0.00032      5.50793     21.28500         0.001766      0.000205     -0.001027
      4.77000      8.26188      7.09500         0.002018     -0.012774     -0.006519
      1.59000      8.26188      7.09500         0.001109     -0.010276      0.003722
      6.35981     -0.00008     21.28500         0.001154      0.001191     -0.003400
      6.35932      5.50827     21.28500         0.004253     -0.001522      0.007583
      4.77000      2.75396      7.09500        -0.011188      0.005751      0.003885
      6.36000      5.50792      7.09500        -0.006616      0.009691     -0.007869
      4.76998      2.75408     21.28500        -0.000472      0.000435     -0.009654
      3.18000      5.50792      7.09500         0.004444      0.003321      0.029631
      7.94976      2.75419     21.28500        -0.000479     -0.000284      0.000316
      3.18135      5.50815     21.28500        -0.002676     -0.001278     -0.027449
      7.95000      2.75396      7.09500         0.006958     -0.002744     -0.001077
      0.00005     11.01592     21.28500         0.000654     -0.000872     -0.003660
      1.59046      8.26190     21.28500         0.000373     -0.002167     -0.005950
      9.54037     -0.00002     21.28500        -0.001703      0.000236     -0.003438
     -0.00000     11.01584      7.09500        -0.000038     -0.000476      0.001905
      9.54000      0.00000      7.09500        -0.000815     -0.000089      0.000427
      6.36000      0.00000      7.09500         0.002620     -0.000244     -0.000507
     11.13000      2.75396      7.09500         0.001906     -0.000190      0.004166
      3.17999      0.00011     21.28500         0.000087     -0.000355     -0.001065
      3.18000      0.00000      7.09500        -0.001074     -0.000886      0.003404
      0.00000      0.00000      7.09500        -0.000260     -0.001808     -0.006355
      6.35992     11.01545     21.28500         0.000170     -0.000205      0.000286
     -0.00012     -0.00010     21.28500         0.000036     -0.000664     -0.007390
      6.36000     11.01584      7.09500        -0.002911      0.004214      0.003205
     -1.59000      2.75396      7.09500        -0.000476      0.001126      0.000315
     -1.59022      2.75379     21.28500         0.001397      0.000651     -0.001165
[...]
      7.95000     11.93376     22.88000        -0.000991     -0.000642     -0.587822
      7.95000      0.91799      5.50000         0.000054      0.000575      0.587250
      7.95000      0.91799      8.69000         0.000020      0.000550     -0.586300
     -1.59013     11.93382     19.69000         0.000776      0.000182      0.587743
     -1.59005     11.93388     22.88000         0.000341     -0.000027     -0.586679
     -1.59000     11.93383      5.50000        -0.000401      0.000254      0.586894
     -1.59000     11.93383      8.69000        -0.000491      0.000024     -0.587238
      0.00026      9.17982     19.69000         0.000085     -0.000269      0.584980
      0.00025      9.17984     22.88000        -0.000362     -0.000166     -0.586900
      0.00000      9.17987      5.50000         0.000022     -0.000234      0.588236
      0.00000      9.17987      8.69000         0.001870     -0.003951     -0.582866
      1.59166      6.42580     19.69000        -0.002805     -0.000143      0.567376
      1.59049      6.42579     22.88000         0.001701     -0.000166     -0.588710
      1.59011     11.93387     22.88000         0.000458     -0.000613     -0.587442
      7.94985     11.93346     19.69000        -0.000578      0.000109      0.586830
    total drift:                               -0.001669      0.004120     -0.007672

  FREE ENERGIE OF THE ION-ELECTRON SYSTEM (eV)
  free  energy   TOTEN  =     -1253.28295485 eV

  energy  without entropy=    -1253.15573186  energy(sigma->0) =    -1253.21934336

 d Force = 0.4272901E-04[ 0.208E-04, 0.647E-04]  d Energy = 0.5424200E-04-0.115E-04
 d Force =-0.1913831E+00[-0.191E+00,-0.191E+00]  d Ewald  =-0.1913832E+00 0.763E-07

 Conjugate gradient step on ions:
 trial-energy change:   -0.000054  1 .order   -0.000043   -0.000065   -0.000021
  (g-gl).g = 0.185E-03      g.g   = 0.220E-03  gl.gl    = 0.223E-03
 g(Force)  = 0.220E-03   g(Stress)= 0.000E+00 ortho     =-0.192E-04
 gamma     =   0.83121
 trial     =   0.31698
 opt step  =   0.46688  (harmonic =   0.46688) maximal distance =0.00063249
 next E    = -1253.282948   (d E  =  -0.00005)

 reached required accuracy - stopping structural energy minimisation