 vasp.5.4.4.18Apr17-6-g9f103f2a35 (build Oct 28 2020 13:00:36) gamma-only

 executed on             LinuxIFC date 2020.12.03  21:33:07

 INCAR:
 POTCAR:    PAW_PBE C 08Apr2002
 POTCAR:    PAW_PBE Cr 06Sep2000
 POTCAR:    PAW_PBE H 15Jun2001
 POTCAR:    PAW_PBE Mo 08Apr2002
 POTCAR:    PAW_PBE S 06Sep2000
 POTCAR:    PAW_PBE C 08Apr2002
   VRHFIN =C: s2p2

   TITEL  = PAW_PBE C 08Apr2002
   POMASS =   12.011; ZVAL   =    4.000    mass and valenz
   ENMAX  =  400.000; ENMIN  =  300.000 eV

 POTCAR:    PAW_PBE Cr 06Sep2000
   VRHFIN =Cr : d5 s1

   TITEL  = PAW_PBE Cr 06Sep2000
   POMASS =   51.996; ZVAL   =    6.000    mass and valenz
   ENMAX  =  227.080; ENMIN  =  170.310 eV

 POTCAR:    PAW_PBE H 15Jun2001
   VRHFIN =H: ultrasoft test

   TITEL  = PAW_PBE H 15Jun2001
   POMASS =    1.000; ZVAL   =    1.000    mass and valenz
   ENMAX  =  250.000; ENMIN  =  200.000 eV

 POTCAR:    PAW_PBE Mo 08Apr2002
   VRHFIN =Mo: 4p5s4d

   TITEL  = PAW_PBE Mo 08Apr2002
   POMASS =   95.940; ZVAL   =    6.000    mass and valenz
   ENMAX  =  224.584; ENMIN  =  168.438 eV

 POTCAR:    PAW_PBE S 06Sep2000
   VRHFIN =S : s2p4

   TITEL  = PAW_PBE S 06Sep2000
   POMASS =   32.066; ZVAL   =    6.000    mass and valenz
   ENMAX  =  258.689; ENMIN  =  194.016 eV

 Optimization of the real space projectors (new method)

 maximal supplied QI-value         = 25.13
 optimisation between [QCUT,QGAM] = [ 10.05, 20.36] = [ 28.30,116.06] Ry
 Optimized for a Real-space Cutoff    1.51 Angstroem

   l    n(q)    QCUT    max X(q) W(low)/X(q) W(high)/X(q)  e(spline)
   0      9    10.053   115.676    0.19E-03    0.21E-03    0.38E-06
   0      9    10.053    87.132    0.19E-03    0.21E-03    0.38E-06
   1      9    10.053     4.429    0.87E-04    0.11E-03    0.39E-06
   1      9    10.053     2.733    0.59E-04    0.62E-04    0.43E-06
 Optimization of the real space projectors (new method)

[...]

   l    n(q)    QCUT    max X(q) W(low)/X(q) W(high)/X(q)  e(spline)
   2      9    10.205    80.908    0.21E-03    0.30E-03    0.60E-06
   2      9    10.205    79.000    0.21E-03    0.30E-03    0.60E-06
   0     10    10.205    52.066    0.39E-04    0.38E-04    0.19E-06
   0     10    10.205    24.514    0.33E-04    0.32E-04    0.16E-06
   1     10    10.205    16.033    0.64E-04    0.17E-03    0.19E-06
   1     10    10.205    11.179    0.49E-04    0.13E-03    0.15E-06
 Optimization of the real space projectors (new method)

 maximal supplied QI-value         = 19.84
 optimisation between [QCUT,QGAM] = [ 10.12, 20.44] = [ 28.68,116.96] Ry
 Optimized for a Real-space Cutoff    1.42 Angstroem

   l    n(q)    QCUT    max X(q) W(low)/X(q) W(high)/X(q)  e(spline)
   0      9    10.119   187.594    0.52E-04    0.93E-04    0.64E-07
   0      9    10.119   164.243    0.51E-04    0.92E-04    0.63E-07
   1      8    10.119    67.533    0.16E-03    0.17E-03    0.23E-06
   1      8    10.119    50.729    0.16E-03    0.16E-03    0.23E-06
  PAW_PBE C 08Apr2002                   :
  PAW_PBE Cr 06Sep2000                  :
  PAW_PBE H 15Jun2001                   :
  PAW_PBE Mo 08Apr2002                  :
  PAW_PBE S 06Sep2000                   :

 POSCAR:  C Cr  H Mo  S
  positions in cartesian coordinates
 exchange correlation table for  LEXCH =        8
   RHO(1)=    0.500       N(1)  =     2000
   RHO(2)=  100.500       N(2)  =     4000

 ion  position               nearest neighbor table
   1  0.551  0.463  0.384-  18 1.09   2 1.42   3 1.43  11 2.20
   2  0.598  0.457  0.421-  17 1.09   1 1.42   5 1.43  11 2.18
   3  0.521  0.533  0.392-  19 1.09   1 1.43   4 1.44  11 2.15
   4  0.550  0.571  0.433-  20 1.09   3 1.44   5 1.44  11 2.09
   5  0.598  0.523  0.451-  12 1.09   2 1.43   4 1.44  11 2.11
   6  0.362  0.274  0.453-  14 1.09  10 1.44   8 1.44  11 2.11
   7  0.350  0.396  0.487-  15 1.09   9 1.43   8 1.44  11 2.15
   8  0.390  0.333  0.490-  13 1.09   7 1.44   6 1.44  11 2.10
   9  0.298  0.376  0.449-  16 1.09  10 1.42   7 1.43  11 2.20
  10  0.305  0.301  0.428-  21 1.09   9 1.42   6 1.44  11 2.18
  11  0.452  0.422  0.438-   4 2.09   8 2.10   5 2.11   6 2.11   3 2.15   7 2.15  10 2.18   2 2.18
                             1 2.20   9 2.20
  12  0.630  0.535  0.481-   5 1.09
  13  0.432  0.329  0.515-   8 1.09
  14  0.380  0.217  0.446-   6 1.09
  15  0.359  0.451  0.509-   7 1.09
  16  0.262  0.414  0.437-   9 1.09
  17  0.626  0.407  0.425-   2 1.09
  18  0.536  0.419  0.357-   1 1.09
  19  0.483  0.553  0.370-   3 1.09
  20  0.541  0.627  0.447-   4 1.09
  21  0.275  0.272  0.397-  10 1.09
  22  0.600  0.600  0.657-  97 2.43 148 2.43 144 2.43  98 2.43 149 2.43 145 2.43  56 3.18  27 3.18
                            61 3.18  44 3.18  38 3.18  47 3.18
  23  0.200  0.800  0.219- 126 2.43 162 2.43 121 2.43 139 2.43 163 2.43 122 2.43  26 3.18  49 3.18
                            51 3.18  64 3.18  54 3.18  70 3.18
  24  0.200  0.600  0.657- 164 2.43 127 2.43 123 2.43 128 2.43 165 2.43 124 2.43  46 3.18  33 3.18
                            47 3.18  63 3.18  34 3.18  66 3.18
  25  0.600  0.800  0.219-  92 2.43 146 2.43 112 2.43  94 2.43 147 2.43 143 2.43  35 3.18  58 3.18
                            29 3.18  36 3.18  50 3.18  49 3.18
  26  0.200  0.600  0.219- 166 2.43 129 2.43 126 2.43 130 2.43 167 2.43 139 2.43  49 3.18  36 3.18
                            23 3.18  62 3.18  28 3.18  64 3.18
  27  0.600  0.800  0.657-  96 2.43 144 2.43 110 2.43  93 2.43 145 2.43 170 2.43  22 3.18  56 3.18
                            31 3.18  47 3.18  48 3.18  46 3.18
  28  0.200  0.400  0.219- 133 2.43 142 2.43 129 2.43 141 2.43 134 2.43 130 2.43  32 3.18  42 3.18
                            36 3.18  59 3.18  26 3.18  62 3.18
  29  0.800  0.000  0.219-  72 2.43  84 2.43  92 2.43  94 2.43 108 2.43  86 2.43  50 3.18  25 3.18
                            59 3.18  58 3.18  52 3.18  55 3.18
  30  0.200  0.200  0.657- 140 2.43 135 2.43 131 2.43 136 2.43 125 2.43 132 2.43  44 3.18  41 3.18
                            34 3.18  57 3.18  53 3.18  60 3.18
  31  0.800  0.000  0.657-  80 2.43  85 2.43  96 2.43  93 2.43  82 2.43  81 2.43  48 3.18  27 3.18
                            60 3.18  56 3.18  71 3.18  57 3.18
  32  0.200  0.200  0.219- 113 2.43 137 2.43 133 2.43 114 2.43 138 2.43 134 2.43  42 3.18  39 3.18
                            28 3.18  55 3.18  54 3.18  59 3.18
  33  0.200  0.800  0.657- 123 2.43 160 2.43 119 2.43 124 2.43 161 2.43 120 2.43  24 3.18  46 3.18
                            37 3.18  66 3.18  53 3.18  69 3.18
  34  0.200  0.400  0.657- 131 2.43 168 2.43 127 2.43 132 2.43 169 2.43 128 2.43  30 3.18  44 3.18
                            47 3.18  60 3.18  24 3.18  63 3.18
  35  0.600  0.600  0.219- 100 2.43 150 2.43 146 2.43 102 2.43 151 2.43 147 2.43  58 3.18  25 3.18
                            67 3.18  42 3.18  40 3.18  36 3.18
  36  0.400  0.600  0.219- 166 2.43 146 2.43 142 2.43 167 2.43 141 2.43 147 2.43  26 3.18  49 3.18
                            28 3.18  25 3.18  42 3.18  35 3.18
  37  0.400  0.000  0.657- 115 2.43 156 2.43 160 2.43 111 2.43 161 2.43 116 2.43  53 3.18  33 3.18
                            43 3.18  46 3.18  41 3.18  48 3.18
  38  0.600  0.400  0.657- 105 2.43 152 2.43 148 2.43 106 2.43 153 2.43 149 2.43  43 3.18  65 3.18
                            61 3.18  41 3.18  22 3.18  44 3.18
  39  0.400  0.200  0.219- 113 2.43 154 2.43 117 2.43 114 2.43 118 2.43 155 2.43  32 3.18  42 3.18
                            54 3.18  40 3.18  51 3.18  45 3.18
  40  0.600  0.400  0.219-  91 2.43 154 2.43 150 2.43  90 2.43 155 2.43 151 2.43  45 3.18  68 3.18
                            67 3.18  39 3.18  35 3.18  42 3.18
  41  0.400  0.200  0.657- 140 2.43 152 2.43 115 2.43 125 2.43 116 2.43 153 2.43  30 3.18  44 3.18
                            53 3.18  38 3.18  37 3.18  43 3.18
  42  0.400  0.400  0.219- 113 2.43 142 2.43 150 2.43 114 2.43 151 2.43 141 2.43  32 3.18  28 3.18
                            39 3.18  35 3.18  36 3.18  40 3.18
  43  0.600  0.200  0.657-  73 2.43 156 2.43 152 2.43  74 2.43 111 2.43 153 2.43  65 3.18  38 3.18
                            71 3.18  37 3.18  48 3.18  41 3.18
  44  0.400  0.400  0.657- 140 2.43 148 2.43 168 2.43 149 2.43 125 2.43 169 2.43  30 3.18  34 3.18
                            41 3.18  22 3.18  47 3.18  38 3.18
  45  0.600  0.200  0.219-  77 2.43 158 2.43 154 2.43  78 2.43 159 2.43 155 2.43  68 3.18  52 3.18
                            40 3.18  51 3.18  50 3.18  39 3.18
  46  0.400  0.800  0.657- 110 2.43 160 2.43 164 2.43 165 2.43 170 2.43 161 2.43  24 3.18  33 3.18
                            47 3.18  48 3.18  37 3.18  27 3.18
  47  0.400  0.600  0.657- 164 2.43 144 2.43 168 2.43 165 2.43 145 2.43 169 2.43  24 3.18  46 3.18
                            34 3.18  27 3.18  44 3.18  22 3.18
  48  0.600  0.000  0.657-  80 2.43 110 2.43 156 2.43  81 2.43 170 2.43 111 2.43  31 3.18  71 3.18
                            46 3.18  27 3.18  43 3.18  37 3.18
  49  0.400  0.800  0.219- 112 2.43 162 2.43 166 2.43 143 2.43 167 2.43 163 2.43  26 3.18  23 3.18
                            36 3.18  50 3.18  51 3.18  25 3.18
  50  0.600  0.000  0.219-  84 2.43 112 2.43 158 2.43 143 2.43  86 2.43 159 2.43  29 3.18  52 3.18
                            49 3.18  25 3.18  45 3.18  51 3.18
  51  0.400  0.000  0.219- 117 2.43 158 2.43 162 2.43 159 2.43 163 2.43 118 2.43  54 3.18  23 3.18
                            45 3.18  49 3.18  39 3.18  50 3.18
  52  0.800  0.200  0.219-  77 2.43  87 2.43  84 2.43  78 2.43  86 2.43 104 2.43  45 3.18  68 3.18
                            50 3.18  62 3.18  29 3.18  59 3.18
  53  0.200  0.000  0.657- 115 2.43 119 2.43 135 2.43 120 2.43 116 2.43 136 2.43  37 3.18  41 3.18
                            69 3.18  33 3.18  30 3.18  57 3.18
  54  0.200  0.000  0.219- 117 2.43 121 2.43 137 2.43 122 2.43 118 2.43 138 2.43  51 3.18  39 3.18
                            70 3.18  32 3.18  23 3.18  55 3.18
  55  0.000  0.000  0.219-  83 2.43 137 2.43  72 2.43  89 2.43 138 2.43 108 2.43  32 3.18  58 3.18
                            59 3.18  70 3.18  54 3.18  29 3.18
  56  0.800  0.800  0.657-  96 2.43  97 2.43 171 2.43  98 2.43  93 2.43 157 2.43  22 3.18  27 3.18
                            61 3.18  57 3.18  31 3.18  69 3.18
  57  0.000  0.000  0.657- 135 2.43 171 2.43  85 2.43 157 2.43 136 2.43  82 2.43  30 3.18  56 3.18
                            60 3.18  69 3.18  53 3.18  31 3.18
  58  0.800  0.800  0.219-  92 2.43 100 2.43  83 2.43 102 2.43  94 2.43  89 2.43  35 3.18  25 3.18
                            67 3.18  55 3.18  29 3.18  70 3.18
  59  0.000  0.200  0.219- 133 2.43  72 2.43  87 2.43 108 2.43 134 2.43 104 2.43  62 3.18  28 3.18
                            29 3.18  55 3.18  32 3.18  52 3.18
  60  0.000  0.200  0.657- 131 2.43  85 2.43 103 2.43  82 2.43 132 2.43  88 2.43  63 3.18  34 3.18
                            31 3.18  57 3.18  30 3.18  71 3.18
  61  0.800  0.600  0.657-  97 2.43 105 2.43  76 2.43  98 2.43 106 2.43  75 2.43  22 3.18  56 3.18
                            38 3.18  69 3.18  65 3.18  66 3.18
  62  0.000  0.400  0.219-  87 2.43  95 2.43 129 2.43 104 2.43 130 2.43  79 2.43  59 3.18  52 3.18
                            26 3.18  64 3.18  28 3.18  68 3.18
[...]
   0.884E+02 -.154E+03 0.783E+02   -.885E+02 0.157E+03 -.812E+02   0.113E+00 -.311E+01 0.295E+01   0.940E-02 0.309E-01 -.334E-01
   0.516E+02 -.261E+03 -.635E+02   -.514E+02 0.265E+03 0.637E+02   -.127E+00 -.423E+01 -.226E+00   0.120E-01 0.454E-01 -.239E-02
   -.170E+03 -.133E+03 -.129E+03   0.173E+03 0.135E+03 0.130E+03   -.291E+01 -.273E+01 -.161E+01   0.322E-01 0.322E-01 0.929E-02
   -.796E+02 0.259E+03 0.341E+02   0.798E+02 -.263E+03 -.333E+02   -.271E+00 0.414E+01 -.801E+00   -.683E-02 -.440E-01 0.136E-01
   0.146E+03 -.685E+02 -.858E+02   -.149E+03 0.681E+02 0.892E+02   0.262E+01 0.318E+00 -.353E+01   -.278E-01 -.993E-02 0.360E-01
   -.722E+02 0.105E+03 -.989E+02   0.725E+02 -.107E+03 0.103E+03   -.298E+00 0.221E+01 -.371E+01   -.876E-02 -.270E-01 0.414E-01
   0.271E+03 -.189E+02 0.521E+02   -.275E+03 0.176E+02 -.514E+02   0.413E+01 0.122E+01 -.720E+00   -.402E-01 -.155E-01 0.896E-02
   0.132E+03 0.180E+03 0.126E+03   -.135E+03 -.184E+03 -.127E+03   0.245E+01 0.343E+01 0.926E+00   -.302E-01 -.325E-01 -.674E-02
   0.820E+01 0.711E+01 0.211E+02   -.795E+01 -.695E+01 -.205E+02   -.259E+00 -.164E+00 -.637E+00   0.165E-02 0.430E-03 0.175E-02
   -.468E+02 -.292E+02 -.453E+02   0.490E+02 0.301E+02 0.506E+02   -.216E+01 -.925E+00 -.531E+01   0.515E-02 0.446E-02 0.499E-02
   -.457E+02 0.192E+02 -.261E+02   0.493E+02 -.195E+02 0.306E+02   -.370E+01 0.300E+00 -.445E+01   0.155E-02 -.348E-02 0.826E-02
   -.481E+02 0.784E+02 0.159E+02   0.519E+02 -.826E+02 -.171E+02   -.386E+01 0.415E+01 0.124E+01   0.245E-02 -.889E-02 0.269E-03
   0.372E+02 -.484E+02 -.211E+02   -.387E+02 0.524E+02 0.249E+02   0.156E+01 -.403E+01 -.389E+01   -.429E-02 0.175E-02 0.747E-02
   0.838E+02 -.301E+02 0.223E+02   -.884E+02 0.329E+02 -.244E+02   0.464E+01 -.285E+01 0.206E+01   -.800E-02 0.195E-03 -.315E-03
   -.820E+02 0.422E+02 -.126E+02   0.865E+02 -.459E+02 0.133E+02   -.447E+01 0.364E+01 -.778E+00   0.782E-02 -.115E-02 -.134E-02
   -.216E+02 0.367E+02 0.260E+02   0.222E+02 -.400E+02 -.308E+02   -.591E+00 0.325E+01 0.479E+01   0.350E-02 -.890E-03 -.810E-02
   0.523E+02 -.370E+02 0.199E+02   -.564E+02 0.385E+02 -.237E+02   0.414E+01 -.149E+01 0.378E+01   -.241E-02 0.496E-02 -.771E-02
   0.378E+02 -.792E+02 -.243E+02   -.409E+02 0.834E+02 0.268E+02   0.320E+01 -.415E+01 -.247E+01   -.106E-02 0.850E-02 0.158E-02
   0.322E+02 0.467E+02 0.449E+02   -.335E+02 -.489E+02 -.501E+02   0.132E+01 0.215E+01 0.525E+01   -.447E-02 -.533E-02 -.487E-02
   -.644E+01 -.165E+02 -.235E+03   0.644E+01 0.165E+02 0.235E+03   -.106E-02 -.112E-01 -.231E-01   0.659E-03 0.146E-02 0.897E-02
   0.817E+00 0.881E+00 0.202E+03   -.820E+00 -.882E+00 -.202E+03   0.241E-02 0.233E-02 0.625E-02   -.121E-03 -.681E-04 -.584E-02
   0.116E+02 -.681E+01 -.210E+03   -.116E+02 0.680E+01 0.210E+03   0.422E-02 0.999E-03 -.845E-02   -.105E-02 0.679E-03 0.654E-02
   0.376E+01 -.166E+02 0.216E+03   -.375E+01 0.166E+02 -.216E+03   -.249E-02 -.840E-02 0.122E-01   -.246E-03 0.162E-02 -.707E-02
   0.109E+02 -.533E+01 0.209E+03   -.109E+02 0.533E+01 -.209E+03   0.761E-02 -.226E-02 0.103E-01   -.114E-02 0.571E-03 -.660E-02
   0.212E+01 -.149E+02 -.213E+03   -.212E+01 0.150E+02 0.213E+03   -.832E-03 -.105E-01 -.123E-01   -.126E-03 0.142E-02 0.685E-02
   0.181E+02 0.157E+01 0.224E+03   -.182E+02 -.157E+01 -.224E+03   0.819E-02 -.359E-03 0.196E-01   -.185E-02 -.190E-03 -.819E-02
   0.160E+01 -.487E+01 0.204E+03   -.160E+01 0.487E+01 -.204E+03   -.241E-02 0.304E-02 0.422E-02   -.181E-03 0.408E-03 -.592E-02
   0.112E+02 0.159E+02 -.231E+03   -.112E+02 -.159E+02 0.231E+03   0.713E-02 0.543E-02 -.735E-03   -.104E-02 -.148E-02 0.840E-02
   0.249E+01 -.273E+01 -.204E+03   -.248E+01 0.274E+01 0.204E+03   -.399E-02 -.428E-02 -.263E-02   -.252E-03 0.321E-03 0.588E-02
   0.104E+02 0.141E+02 0.224E+03   -.104E+02 -.141E+02 -.224E+03   0.702E-02 0.943E-02 0.183E-01   -.109E-02 -.150E-02 -.821E-02
   0.104E+01 0.182E+01 -.203E+03   -.104E+01 -.181E+01 0.203E+03   0.304E-02 -.214E-02 -.461E-02   -.636E-04 -.227E-03 0.580E-02
   0.197E+02 -.613E+00 -.229E+03   -.197E+02 0.598E+00 0.229E+03   0.121E-01 0.161E-01 -.155E-01   -.178E-02 0.616E-04 0.820E-02
   -.415E+01 -.159E+02 0.242E+03   0.416E+01 0.160E+02 -.242E+03   -.101E-01 -.200E-01 0.229E-01   0.562E-03 0.158E-02 -.945E-02
   0.151E+02 -.128E+02 0.230E+03   -.151E+02 0.128E+02 -.230E+03   0.102E-02 -.638E-02 0.149E-01   -.130E-02 0.138E-02 -.868E-02
   -.496E+01 0.968E+01 -.208E+03   0.496E+01 -.968E+01 0.208E+03   0.297E-02 0.257E-03 -.540E-02   0.559E-03 -.753E-03 0.637E-02
   -.182E+02 0.107E+01 -.236E+03   0.183E+02 -.107E+01 0.236E+03   -.601E-02 0.382E-02 -.217E-01   0.183E-02 -.399E-04 0.916E-02
   -.465E+01 0.187E+02 0.229E+03   0.465E+01 -.187E+02 -.229E+03   -.418E-02 0.734E-02 0.228E-01   0.603E-03 -.180E-02 -.874E-02
   -.165E+02 0.543E+01 0.240E+03   0.165E+02 -.542E+01 -.240E+03   -.126E-01 -.195E-02 0.210E-01   0.170E-02 -.352E-03 -.948E-02
   -.849E+01 0.179E+02 -.233E+03   0.848E+01 -.179E+02 0.233E+03   0.118E-01 0.397E-02 -.685E-02   0.694E-03 -.177E-02 0.879E-02
   0.808E+01 0.507E+01 0.248E+03   -.808E+01 -.507E+01 -.248E+03   0.197E-02 -.133E-02 0.207E-01   -.553E-03 -.332E-03 -.106E-01
   -.135E+02 0.909E+01 -.214E+03   0.135E+02 -.910E+01 0.214E+03   -.995E-02 0.812E-02 -.171E-01   0.118E-02 -.808E-03 0.691E-02
   0.323E+01 -.445E+00 -.252E+03   -.323E+01 0.431E+00 0.252E+03   0.146E-02 0.183E-01 -.247E-01   -.434E-03 -.485E-04 0.105E-01
   -.124E+02 0.108E+02 0.214E+03   0.124E+02 -.108E+02 -.214E+03   -.902E-02 0.555E-02 0.172E-01   0.127E-02 -.982E-03 -.709E-02
   0.529E+01 -.721E+01 -.207E+03   -.529E+01 0.722E+01 0.207E+03   0.294E-02 -.485E-02 -.976E-02   -.438E-03 0.669E-03 0.627E-02
   0.118E+02 -.159E+02 -.230E+03   -.118E+02 0.159E+02 0.230E+03   0.395E-02 -.501E-02 -.162E-01   -.112E-02 0.149E-02 0.846E-02
   -.218E+01 -.785E+00 -.203E+03   0.218E+01 0.787E+00 0.203E+03   -.248E-02 -.171E-02 -.759E-02   0.273E-03 0.196E-03 0.590E-02
   0.679E+01 -.715E+01 0.207E+03   -.679E+01 0.716E+01 -.207E+03   0.702E-03 -.403E-02 0.978E-02   -.598E-03 0.794E-03 -.638E-02
   -.146E+01 -.143E+01 0.204E+03   0.146E+01 0.143E+01 -.204E+03   -.510E-02 0.804E-03 0.581E-02   0.197E-03 0.141E-03 -.597E-02
   -.320E+01 0.892E+01 0.207E+03   0.320E+01 -.893E+01 -.207E+03   -.444E-03 0.400E-02 0.778E-02   0.387E-03 -.881E-03 -.639E-02
   -.291E+01 0.301E+01 0.203E+03   0.291E+01 -.301E+01 -.203E+03   -.619E-03 0.157E-03 0.957E-02   0.232E-03 -.328E-03 -.592E-02
   -.232E-02 0.148E+02 -.212E+03   -.418E-02 -.148E+02 0.212E+03   0.599E-02 -.128E-02 -.204E-03   -.896E-04 -.137E-02 0.672E-02
   0.149E+00 0.121E+02 0.210E+03   -.151E+00 -.121E+02 -.210E+03   0.377E-02 0.822E-02 0.958E-02   -.474E-04 -.127E-02 -.663E-02
   0.292E+01 0.339E+01 0.207E+03   -.292E+01 -.340E+01 -.207E+03   0.418E-02 0.796E-02 -.224E-02   -.359E-03 -.421E-03 -.625E-02
   -.438E+01 -.103E+02 -.211E+03   0.438E+01 0.103E+02 0.211E+03   -.392E-02 -.110E-01 -.853E-02   0.419E-03 0.897E-03 0.659E-02
   0.466E+01 0.651E+01 -.208E+03   -.465E+01 -.650E+01 0.208E+03   -.258E-02 -.316E-02 -.387E-02   -.504E-03 -.596E-03 0.630E-02
   -.557E+01 -.134E+02 0.214E+03   0.557E+01 0.134E+02 -.214E+03   -.501E-02 0.186E-03 -.129E-02   0.483E-03 0.122E-02 -.679E-02
   0.955E+01 0.485E+01 0.208E+03   -.955E+01 -.485E+01 -.208E+03   0.622E-02 0.664E-02 0.109E-01   -.101E-02 -.571E-03 -.646E-02
   0.122E+02 0.624E+01 -.211E+03   -.122E+02 -.624E+01 0.211E+03   -.345E-02 0.923E-03 0.278E-02   -.115E-02 -.615E-03 0.654E-02
[...]
   -.310E+01 0.368E+01 0.693E+03   0.310E+01 -.368E+01 -.697E+03   0.630E-03 0.123E-02 0.510E+01   0.349E-03 -.330E-03 -.199E-02
   -.114E+02 0.134E+02 -.283E+03   0.114E+02 -.134E+02 0.288E+03   0.227E-03 0.192E-03 -.507E+01   0.128E-02 -.133E-02 -.103E-01
   0.157E+01 0.327E+01 0.289E+03   -.157E+01 -.327E+01 -.293E+03   0.882E-03 -.265E-03 0.508E+01   0.100E-03 -.622E-03 0.910E-02
   0.487E+00 0.962E+00 -.691E+03   -.489E+00 -.961E+00 0.696E+03   0.805E-03 0.519E-03 -.510E+01   0.206E-03 -.372E-03 0.229E-02
   0.105E+01 0.622E+00 0.691E+03   -.105E+01 -.623E+00 -.695E+03   0.716E-03 0.112E-02 0.510E+01   -.802E-04 -.253E-04 -.184E-02
   0.312E+01 0.214E+01 -.289E+03   -.312E+01 -.214E+01 0.294E+03   0.109E-02 0.166E-02 -.508E+01   -.309E-03 -.179E-03 -.968E-02
   0.229E+02 -.229E+02 0.270E+03   -.229E+02 0.229E+02 -.275E+03   0.125E-02 0.724E-03 0.506E+01   -.225E-02 0.230E-02 0.113E-01
   0.579E+01 -.572E+01 -.697E+03   -.579E+01 0.572E+01 0.701E+03   0.104E-02 -.402E-03 -.510E+01   -.608E-03 0.690E-03 0.249E-02
   0.648E+01 -.492E+01 0.697E+03   -.648E+01 0.492E+01 -.701E+03   0.107E-02 0.872E-04 0.510E+01   -.605E-03 0.546E-03 -.243E-02
   0.255E+02 -.194E+02 -.271E+03   -.255E+02 0.194E+02 0.275E+03   0.328E-03 0.760E-03 -.506E+01   -.247E-02 0.216E-02 -.117E-01
   0.350E+02 -.190E+02 0.210E+03   -.350E+02 0.190E+02 -.214E+03   0.197E-02 -.650E-02 0.501E+01   -.360E-02 0.190E-02 0.162E-01
   0.679E+01 -.332E+01 -.709E+03   -.679E+01 0.332E+01 0.714E+03   0.168E-02 -.212E-02 -.510E+01   -.750E-03 0.727E-03 0.394E-02
   0.119E+01 -.439E+01 -.693E+03   -.119E+01 0.439E+01 0.697E+03   0.422E-03 0.322E-03 -.510E+01   -.244E-03 0.184E-03 0.226E-02
   -.382E+01 -.297E+01 0.284E+03   0.382E+01 0.297E+01 -.289E+03   -.999E-03 -.202E-02 0.509E+01   0.176E-03 -.118E-03 0.943E-02
   0.108E+01 0.731E+00 0.261E+01   -.319E-12 0.101E-12 -.290E-11   -.109E+01 -.733E+00 -.263E+01   0.712E-02 0.415E-02 0.108E-01

 POSITION                                       TOTAL-FORCE (eV/Angst)
      5.08159      6.38040     12.44883        -0.009208      0.001508     -0.030301
      5.88070      6.28774     13.62059         0.010241      0.005311     -0.008331
      4.05146      7.34046     12.67794         0.007447      0.007166     -0.030401
      4.21539      7.85982     14.01149         0.011281      0.003202     -0.006026
      5.35766      7.19732     14.59660         0.002281      0.005505      0.003325
      3.58430      3.76992     14.65778        -0.004727     -0.002402      0.002501
      2.41216      5.45060     15.75666         0.006056     -0.002043     -0.002185
      3.55747      4.58534     15.85063        -0.005885     -0.004535      0.000231
      1.74406      5.16924     14.52935        -0.004534      0.000919      0.018965
      2.45789      4.14360     13.84962         0.008910     -0.007206      0.047733
      3.82588      5.80840     14.17042        -0.010606     -0.000916      0.016258
      5.76194      7.37068     15.59054         0.003132     -0.004202      0.024050
      4.25241      4.52851     16.68547        -0.005211      0.012231      0.013066
      4.30738      2.99196     14.42538         0.005683      0.002367      0.002796
      2.12038      6.20531     16.48364        -0.007058     -0.001450      0.013845
      0.87876      5.70356     14.14364        -0.015709     -0.003220     -0.010475
      6.71532      5.60631     13.76670         0.011441     -0.008327     -0.000961
      5.19170      5.76958     11.55480         0.002171      0.011073     -0.003633
      3.27413      7.62064     11.96973         0.010502     -0.002514     -0.009358
      3.61545      8.63903     14.47480        -0.001938     -0.001636      0.011889
      2.21226      3.74272     12.86926        -0.002165     -0.010392     -0.025271
      4.77006      8.26218     21.28500        -0.000832     -0.003795     -0.004662
     -3.18000     11.01584      7.09500        -0.000504      0.001482      0.002600
     -1.58988      8.26184     21.28500        -0.001224     -0.000992     -0.002066
      3.18000     11.01584      7.09500         0.002121      0.003207      0.004460
     -1.59000      8.26188      7.09500         0.001474     -0.000394      0.002655
      3.18008     11.01598     21.28500         0.000168     -0.000429     -0.003486
      0.00000      5.50792      7.09500        -0.003075     -0.002352      0.004544
     12.72000      0.00000      7.09500        -0.001781     -0.000117      0.002618
      1.59015      2.75415     21.28500        -0.001318     -0.001737     -0.000762
     12.72001      0.00008     21.28500         0.001118      0.000143     -0.000394
      1.59000      2.75396      7.09500        -0.001394      0.000342      0.003963
     -3.18006     11.01585     21.28500        -0.000251      0.000505     -0.001450
      0.00002      5.50755     21.28500         0.000280      0.001333     -0.007285
      4.77000      8.26188      7.09500         0.002744     -0.000991      0.010955
      1.59000      8.26188      7.09500         0.001425      0.001607      0.001697
      6.35974      0.00011     21.28500         0.001309      0.000499     -0.000979
      6.36011      5.50786     21.28500        -0.001265      0.000578     -0.003635
      4.77000      2.75396      7.09500        -0.003866      0.000048      0.006193
      6.36000      5.50792      7.09500        -0.001382      0.003828      0.003687
      4.76943      2.75413     21.28500         0.001840     -0.001091     -0.000297
      3.18000      5.50792      7.09500         0.003797     -0.000338     -0.001228
      7.95013      2.75402     21.28500        -0.002318     -0.000246     -0.004433
      3.17983      5.50714     21.28500         0.000706      0.003631     -0.010441
      7.95000      2.75396      7.09500         0.005307      0.000065      0.003672
      0.00004     11.01581     21.28500        -0.000250      0.001190     -0.002526
      1.59005      8.26198     21.28500         0.000868     -0.001644     -0.000549
      9.54041      0.00003     21.28500        -0.002208      0.000237     -0.002427
     -0.00000     11.01584      7.09500         0.000928      0.000085      0.003229
      9.54000      0.00000      7.09500        -0.001622      0.000726      0.001100
      6.36000      0.00000      7.09500         0.002069      0.000319      0.001293
     11.13000      2.75396      7.09500         0.001324     -0.002185      0.004785
      3.17987      0.00020     21.28500        -0.000599     -0.000765     -0.000226
      3.18000      0.00000      7.09500         0.001848      0.000879      0.003227
      0.00000      0.00000      7.09500        -0.000827      0.000692     -0.005654
      6.36002     11.01589     21.28500         0.000139      0.000507     -0.002563
     -0.00002      0.00001     21.28500         0.000238      0.000933     -0.005512
      6.36000     11.01584      7.09500        -0.003750     -0.002478      0.002231
     -1.59000      2.75396      7.09500        -0.001249     -0.000202      0.004039
     -1.59004      2.75403     21.28500         0.001474     -0.001063      0.000863
[...]
      7.94999     11.93383     22.88000        -0.000159      0.000168     -0.585868
      7.95000      0.91799      5.50000         0.000047      0.000715      0.585448
      7.95000      0.91799      8.69000         0.000534     -0.000202     -0.586073
     -1.59011     11.93392     19.69000        -0.000507      0.000490      0.586905
     -1.59003     11.93387     22.88000        -0.000308      0.000398     -0.586858
     -1.59000     11.93383      5.50000        -0.000110      0.000162      0.585305
     -1.59000     11.93383      8.69000        -0.000482      0.000102     -0.585729
     -0.00006      9.17984     19.69000         0.000288     -0.000171      0.583506
      0.00005      9.17986     22.88000         0.000438     -0.000136     -0.585138
      0.00000      9.17987      5.50000         0.000128      0.000047      0.586799
      0.00000      9.17987      8.69000         0.000157      0.000664     -0.584441
      1.59007      6.42575     19.69000         0.000170     -0.001325      0.574057
      1.59005      6.42578     22.88000         0.000063     -0.001142     -0.587543
      1.59006     11.93386     22.88000         0.000535      0.000242     -0.586449
      7.95008     11.93396     19.69000        -0.000007      0.000372      0.585202
    total drift:                               -0.001449      0.002299     -0.005232

  FREE ENERGIE OF THE ION-ELECTRON SYSTEM (eV)
  free  energy   TOTEN  =     -1253.21059055 eV

  energy  without entropy=    -1253.07535092  energy(sigma->0) =    -1253.14297073

 d Force = 0.6928588E-04[ 0.476E-04, 0.910E-04]  d Energy = 0.6207411E-04 0.721E-05
 d Force = 0.3896888E+00[ 0.390E+00, 0.390E+00]  d Ewald  = 0.3896889E+00-0.816E-07

 Conjugate gradient step on ions:
 trial-energy change:   -0.000062  1 .order   -0.000069   -0.000091   -0.000048
  (g-gl).g = 0.702E-04      g.g   = 0.226E-03  gl.gl    = 0.645E-03
 g(Force)  = 0.226E-03   g(Stress)= 0.000E+00 ortho     = 0.376E-04
 gamma     =   0.10893
 trial     =   0.39584
 opt step  =   0.82959  (harmonic =   0.82959) maximal distance =0.00102543
 next E    = -1253.210624   (d E  =  -0.00010)

 reached required accuracy - stopping structural energy minimisation