 vasp.5.4.4.18Apr17-6-g9f103f2a35 (build Oct 28 2020 13:00:36) gamma-only

 executed on             LinuxIFC date 2020.12.03  21:33:07

 INCAR:
 POTCAR:    PAW_PBE C 08Apr2002
 POTCAR:    PAW_PBE Cr 06Sep2000
 POTCAR:    PAW_PBE H 15Jun2001
 POTCAR:    PAW_PBE Mo 08Apr2002
 POTCAR:    PAW_PBE S 06Sep2000
 POTCAR:    PAW_PBE C 08Apr2002
   VRHFIN =C: s2p2

   TITEL  = PAW_PBE C 08Apr2002
   POMASS =   12.011; ZVAL   =    4.000    mass and valenz
   ENMAX  =  400.000; ENMIN  =  300.000 eV

 POTCAR:    PAW_PBE Cr 06Sep2000
   VRHFIN =Cr : d5 s1

   TITEL  = PAW_PBE Cr 06Sep2000
   POMASS =   51.996; ZVAL   =    6.000    mass and valenz
   ENMAX  =  227.080; ENMIN  =  170.310 eV

 POTCAR:    PAW_PBE H 15Jun2001
   VRHFIN =H: ultrasoft test

   TITEL  = PAW_PBE H 15Jun2001
   POMASS =    1.000; ZVAL   =    1.000    mass and valenz
   ENMAX  =  250.000; ENMIN  =  200.000 eV

 POTCAR:    PAW_PBE Mo 08Apr2002
   VRHFIN =Mo: 4p5s4d

   TITEL  = PAW_PBE Mo 08Apr2002
   POMASS =   95.940; ZVAL   =    6.000    mass and valenz
   ENMAX  =  224.584; ENMIN  =  168.438 eV

 POTCAR:    PAW_PBE S 06Sep2000
   VRHFIN =S : s2p4

   TITEL  = PAW_PBE S 06Sep2000
   POMASS =   32.066; ZVAL   =    6.000    mass and valenz
   ENMAX  =  258.689; ENMIN  =  194.016 eV

 Optimization of the real space projectors (new method)

 maximal supplied QI-value         = 25.13
 optimisation between [QCUT,QGAM] = [ 10.05, 20.36] = [ 28.30,116.06] Ry
 Optimized for a Real-space Cutoff    1.51 Angstroem

   l    n(q)    QCUT    max X(q) W(low)/X(q) W(high)/X(q)  e(spline)
   0      9    10.053   115.676    0.19E-03    0.21E-03    0.38E-06
   0      9    10.053    87.132    0.19E-03    0.21E-03    0.38E-06
   1      9    10.053     4.429    0.87E-04    0.11E-03    0.39E-06
   1      9    10.053     2.733    0.59E-04    0.62E-04    0.43E-06
 Optimization of the real space projectors (new method)

[...]

   l    n(q)    QCUT    max X(q) W(low)/X(q) W(high)/X(q)  e(spline)
   2      9    10.205    80.908    0.21E-03    0.30E-03    0.60E-06
   2      9    10.205    79.000    0.21E-03    0.30E-03    0.60E-06
   0     10    10.205    52.066    0.39E-04    0.38E-04    0.19E-06
   0     10    10.205    24.514    0.33E-04    0.32E-04    0.16E-06
   1     10    10.205    16.033    0.64E-04    0.17E-03    0.19E-06
   1     10    10.205    11.179    0.49E-04    0.13E-03    0.15E-06
 Optimization of the real space projectors (new method)

 maximal supplied QI-value         = 19.84
 optimisation between [QCUT,QGAM] = [ 10.12, 20.44] = [ 28.68,116.96] Ry
 Optimized for a Real-space Cutoff    1.42 Angstroem

   l    n(q)    QCUT    max X(q) W(low)/X(q) W(high)/X(q)  e(spline)
   0      9    10.119   187.594    0.52E-04    0.93E-04    0.64E-07
   0      9    10.119   164.243    0.51E-04    0.92E-04    0.63E-07
   1      8    10.119    67.533    0.16E-03    0.17E-03    0.23E-06
   1      8    10.119    50.729    0.16E-03    0.16E-03    0.23E-06
  PAW_PBE C 08Apr2002                   :
  PAW_PBE Cr 06Sep2000                  :
  PAW_PBE H 15Jun2001                   :
  PAW_PBE Mo 08Apr2002                  :
  PAW_PBE S 06Sep2000                   :

 POSCAR:  C Cr  H Mo  S
  positions in cartesian coordinates
 exchange correlation table for  LEXCH =        8
   RHO(1)=    0.500       N(1)  =     2000
   RHO(2)=  100.500       N(2)  =     4000

 ion  position               nearest neighbor table
   1  0.387  0.398  0.501-  18 1.09   2 1.42   3 1.43  11 2.20
   2  0.340  0.431  0.474-  17 1.09   1 1.42   5 1.43  11 2.18
   3  0.488  0.468  0.502-  19 1.09   1 1.43   4 1.44  11 2.15
   4  0.504  0.547  0.475-  20 1.09   3 1.44   5 1.44  11 2.09
   5  0.411  0.523  0.457-  12 1.09   2 1.43   4 1.44  11 2.11
   6  0.393  0.307  0.395-  14 1.09  10 1.44   8 1.44  11 2.11
   7  0.534  0.454  0.382-  15 1.09   9 1.43   8 1.44  11 2.15
   8  0.431  0.400  0.375-  13 1.09   7 1.44   6 1.44  11 2.10
   9  0.559  0.395  0.406-  16 1.09  10 1.42   7 1.43  11 2.20
  10  0.473  0.305  0.415-  21 1.09   9 1.42   6 1.44  11 2.18
  11  0.452  0.421  0.439-   4 2.09   8 2.10   5 2.11   6 2.11   3 2.15   7 2.15  10 2.18   2 2.18
                             1 2.20   9 2.20
  12  0.398  0.568  0.436-   5 1.09
  13  0.390  0.424  0.356-   8 1.09
  14  0.318  0.249  0.395-   6 1.09
  15  0.584  0.527  0.372-   7 1.09
  16  0.631  0.417  0.419-   9 1.09
  17  0.263  0.391  0.465-   2 1.09
  18  0.353  0.328  0.517-   1 1.09
  19  0.544  0.463  0.519-   3 1.09
  20  0.573  0.613  0.470-   4 1.09
  21  0.468  0.246  0.433-  10 1.09
  22  0.600  0.600  0.657-  97 2.43 148 2.43 144 2.43  98 2.43 149 2.43 145 2.43  56 3.18  27 3.18
                            61 3.18  44 3.18  38 3.18  47 3.18
  23  0.200  0.800  0.219- 126 2.43 162 2.43 121 2.43 139 2.43 163 2.43 122 2.43  26 3.18  49 3.18
                            51 3.18  64 3.18  54 3.18  70 3.18
  24  0.200  0.600  0.657- 164 2.43 127 2.43 123 2.43 128 2.43 165 2.43 124 2.43  46 3.18  33 3.18
                            47 3.18  63 3.18  34 3.18  66 3.18
  25  0.600  0.800  0.219-  92 2.43 146 2.43 112 2.43  94 2.43 147 2.43 143 2.43  35 3.18  58 3.18
                            29 3.18  36 3.18  50 3.18  49 3.18
  26  0.200  0.600  0.219- 166 2.43 129 2.43 126 2.43 130 2.43 167 2.43 139 2.43  49 3.18  36 3.18
                            23 3.18  62 3.18  28 3.18  64 3.18
  27  0.600  0.800  0.657-  96 2.43 144 2.43 110 2.43  93 2.43 145 2.43 170 2.43  22 3.18  56 3.18
                            31 3.18  47 3.18  48 3.18  46 3.18
  28  0.200  0.400  0.219- 133 2.43 142 2.43 129 2.43 141 2.43 134 2.43 130 2.43  32 3.18  42 3.18
                            36 3.18  59 3.18  26 3.18  62 3.18
  29  0.800  0.000  0.219-  72 2.43  84 2.43  92 2.43  94 2.43 108 2.43  86 2.43  50 3.18  25 3.18
                            59 3.18  58 3.18  52 3.18  55 3.18
  30  0.200  0.200  0.657- 140 2.43 135 2.43 131 2.43 136 2.43 125 2.43 132 2.43  44 3.18  41 3.18
                            34 3.18  57 3.18  53 3.18  60 3.18
  31  0.800  0.000  0.657-  80 2.43  85 2.43  96 2.43  93 2.43  82 2.43  81 2.43  48 3.18  27 3.18
                            60 3.18  56 3.18  71 3.18  57 3.18
  32  0.200  0.200  0.219- 113 2.43 137 2.43 133 2.43 114 2.43 138 2.43 134 2.43  42 3.18  39 3.18
                            28 3.18  55 3.18  54 3.18  59 3.18
  33  0.200  0.800  0.657- 123 2.43 160 2.43 119 2.43 124 2.43 161 2.43 120 2.43  24 3.18  46 3.18
                            37 3.18  66 3.18  53 3.18  69 3.18
  34  0.200  0.400  0.657- 131 2.43 168 2.43 127 2.43 132 2.43 169 2.43 128 2.43  30 3.18  44 3.18
                            47 3.18  60 3.18  24 3.18  63 3.18
  35  0.600  0.600  0.219- 100 2.43 150 2.43 146 2.43 102 2.43 151 2.43 147 2.43  58 3.18  25 3.18
                            67 3.18  42 3.18  40 3.18  36 3.18
  36  0.400  0.600  0.219- 166 2.43 146 2.43 142 2.43 167 2.43 141 2.43 147 2.43  26 3.18  49 3.18
                            28 3.18  25 3.18  42 3.18  35 3.18
  37  0.400  0.000  0.657- 115 2.43 156 2.43 160 2.43 111 2.43 161 2.43 116 2.43  53 3.18  33 3.18
                            43 3.18  46 3.18  41 3.18  48 3.18
  38  0.600  0.400  0.657- 105 2.43 152 2.43 148 2.43 106 2.43 153 2.43 149 2.43  43 3.18  65 3.18
                            61 3.18  41 3.18  22 3.18  44 3.18
  39  0.400  0.200  0.219- 113 2.43 154 2.43 117 2.43 114 2.43 118 2.43 155 2.43  32 3.18  42 3.18
                            54 3.18  40 3.18  51 3.18  45 3.18
  40  0.600  0.400  0.219-  91 2.43 154 2.43 150 2.43  90 2.43 155 2.43 151 2.43  45 3.18  68 3.18
                            67 3.18  39 3.18  35 3.18  42 3.18
  41  0.400  0.200  0.657- 140 2.43 152 2.43 115 2.43 125 2.43 116 2.43 153 2.43  30 3.18  44 3.18
                            53 3.18  38 3.18  37 3.18  43 3.18
  42  0.400  0.400  0.219- 113 2.43 142 2.43 150 2.43 114 2.43 151 2.43 141 2.43  32 3.18  28 3.18
                            39 3.18  35 3.18  36 3.18  40 3.18
  43  0.600  0.200  0.657-  73 2.43 156 2.43 152 2.43  74 2.43 111 2.43 153 2.43  65 3.18  38 3.18
                            71 3.18  37 3.18  48 3.18  41 3.18
  44  0.400  0.400  0.657- 140 2.43 148 2.43 168 2.43 149 2.43 125 2.43 169 2.43  30 3.18  34 3.18
                            41 3.18  22 3.18  47 3.18  38 3.18
  45  0.600  0.200  0.219-  77 2.43 158 2.43 154 2.43  78 2.43 159 2.43 155 2.43  68 3.18  52 3.18
                            40 3.18  51 3.18  50 3.18  39 3.18
  46  0.400  0.800  0.657- 110 2.43 160 2.43 164 2.43 165 2.43 170 2.43 161 2.43  24 3.18  33 3.18
                            47 3.18  48 3.18  37 3.18  27 3.18
  47  0.400  0.600  0.657- 164 2.43 144 2.43 168 2.43 165 2.43 145 2.43 169 2.43  24 3.18  46 3.18
                            34 3.18  27 3.18  44 3.18  22 3.18
  48  0.600  0.000  0.657-  80 2.43 110 2.43 156 2.43  81 2.43 170 2.43 111 2.43  31 3.18  71 3.18
                            46 3.18  27 3.18  43 3.18  37 3.18
  49  0.400  0.800  0.219- 112 2.43 162 2.43 166 2.43 143 2.43 167 2.43 163 2.43  26 3.18  23 3.18
                            36 3.18  50 3.18  51 3.18  25 3.18
  50  0.600  0.000  0.219-  84 2.43 112 2.43 158 2.43 143 2.43  86 2.43 159 2.43  29 3.18  52 3.18
                            49 3.18  25 3.18  45 3.18  51 3.18
  51  0.400  0.000  0.219- 117 2.43 158 2.43 162 2.43 159 2.43 163 2.43 118 2.43  54 3.18  23 3.18
                            45 3.18  49 3.18  39 3.18  50 3.18
  52  0.800  0.200  0.219-  77 2.43  87 2.43  84 2.43  78 2.43  86 2.43 104 2.43  45 3.18  68 3.18
                            50 3.18  62 3.18  29 3.18  59 3.18
  53  0.200  0.000  0.657- 115 2.43 119 2.43 135 2.43 120 2.43 116 2.43 136 2.43  37 3.18  41 3.18
                            69 3.18  33 3.18  30 3.18  57 3.18
  54  0.200  0.000  0.219- 117 2.43 121 2.43 137 2.43 122 2.43 118 2.43 138 2.43  51 3.18  39 3.18
                            70 3.18  32 3.18  23 3.18  55 3.18
  55  0.000  0.000  0.219-  83 2.43 137 2.43  72 2.43  89 2.43 138 2.43 108 2.43  32 3.18  58 3.18
                            59 3.18  70 3.18  54 3.18  29 3.18
  56  0.800  0.800  0.657-  96 2.43  97 2.43 171 2.43  98 2.43  93 2.43 157 2.43  22 3.18  27 3.18
                            61 3.18  57 3.18  31 3.18  69 3.18
  57  0.000  0.000  0.657- 135 2.43 171 2.43  85 2.43 157 2.43 136 2.43  82 2.43  30 3.18  56 3.18
                            60 3.18  69 3.18  53 3.18  31 3.18
  58  0.800  0.800  0.219-  92 2.43 100 2.43  83 2.43 102 2.43  94 2.43  89 2.43  35 3.18  25 3.18
                            67 3.18  55 3.18  29 3.18  70 3.18
  59  0.000  0.200  0.219- 133 2.43  72 2.43  87 2.43 108 2.43 134 2.43 104 2.43  62 3.18  28 3.18
                            29 3.18  55 3.18  32 3.18  52 3.18
  60  0.000  0.200  0.657- 131 2.43  85 2.43 103 2.43  82 2.43 132 2.43  88 2.43  63 3.18  34 3.18
                            31 3.18  57 3.18  30 3.18  71 3.18
  61  0.800  0.600  0.657-  97 2.43 105 2.43  76 2.43  98 2.43 106 2.43  75 2.43  22 3.18  56 3.18
                            38 3.18  69 3.18  65 3.18  66 3.18
  62  0.000  0.400  0.219-  87 2.43  95 2.43 129 2.43 104 2.43 130 2.43  79 2.43  59 3.18  52 3.18
                            26 3.18  64 3.18  28 3.18  68 3.18
[...]

 FORCES acting on ions
    electron-ion (+dipol)            ewald-force                    non-local-force                 convergence-correction
   0.604E+02 0.149E+03 -.492E+02   -.619E+02 -.150E+03 0.530E+02   0.155E+01 0.792E+00 -.403E+01   -.107E+00 -.342E-01 0.252E+00
   0.260E+03 0.593E+02 0.435E+02   -.264E+03 -.591E+02 -.417E+02   0.386E+01 -.280E+00 -.198E+01   -.222E+00 0.231E-01 0.152E+00
   -.139E+03 -.415E+02 -.558E+02   0.140E+03 0.428E+02 0.595E+02   -.106E+01 -.137E+01 -.405E+01   0.218E-01 0.845E-01 0.277E+00
   -.631E+02 -.255E+03 0.316E+02   0.633E+02 0.259E+03 -.300E+02   -.196E+00 -.382E+01 -.177E+01   -.287E-01 0.237E+00 0.163E+00
   0.187E+03 -.191E+03 0.947E+02   -.190E+03 0.194E+03 -.943E+02   0.290E+01 -.309E+01 -.495E+00   -.190E+00 0.184E+00 0.856E-01
   0.101E+03 0.228E+03 -.106E+02   -.102E+03 -.231E+03 0.824E+01   0.783E+00 0.329E+01 0.253E+01   0.131E-02 -.213E+00 -.198E+00
   -.107E+03 -.165E+03 0.334E+02   0.109E+03 0.166E+03 -.368E+02   -.182E+01 -.135E+01 0.373E+01   0.131E+00 0.561E-01 -.244E+00
   0.126E+03 -.184E+02 0.657E+02   -.127E+03 0.182E+02 -.696E+02   0.121E+01 0.243E+00 0.415E+01   -.281E-01 -.346E-01 -.298E+00
   -.271E+03 -.933E+01 -.585E+02   0.275E+03 0.870E+01 0.566E+02   -.378E+01 0.673E+00 0.204E+01   0.223E+00 -.450E-01 -.139E+00
   -.144E+03 0.230E+03 -.862E+02   0.146E+03 -.233E+03 0.850E+02   -.225E+01 0.338E+01 0.131E+01   0.150E+00 -.199E+00 -.106E+00
   -.120E+02 0.169E+02 -.133E+02   0.117E+02 -.164E+02 0.129E+02   0.357E+00 -.428E+00 0.399E+00   -.522E-02 0.847E-02 -.480E-02
   0.577E+02 -.601E+02 0.393E+02   -.608E+02 0.634E+02 -.430E+02   0.306E+01 -.328E+01 0.369E+01   -.270E-01 0.276E-01 -.652E-03
   0.612E+02 -.192E+02 0.111E+02   -.657E+02 0.210E+02 -.142E+02   0.450E+01 -.177E+01 0.318E+01   -.129E-01 0.261E-03 -.406E-01
   0.517E+02 0.752E+02 -.129E+02   -.556E+02 -.795E+02 0.129E+02   0.390E+01 0.430E+01 0.321E-01   -.940E-02 -.334E-01 -.222E-01
   -.273E+02 -.761E+02 0.321E-01   0.284E+02 0.815E+02 -.184E+01   -.112E+01 -.540E+01 0.183E+01   0.163E-01 0.194E-01 -.327E-01
   -.891E+02 -.167E+02 -.294E+02   0.943E+02 0.183E+02 0.315E+02   -.517E+01 -.161E+01 -.210E+01   0.369E-01 -.633E-03 -.105E-01
   0.846E+02 0.368E+02 0.238E+02   -.894E+02 -.397E+02 -.252E+02   0.483E+01 0.292E+01 0.140E+01   -.357E-01 -.457E-02 0.139E-01
   0.825E+01 0.707E+02 -.451E+01   -.818E+01 -.758E+02 0.725E+01   -.690E-01 0.513E+01 -.276E+01   -.114E-01 -.158E-01 0.366E-01
   -.674E+02 -.215E+01 -.740E+01   0.722E+02 0.175E+01 0.104E+02   -.491E+01 0.402E+00 -.309E+01   0.142E-01 0.779E-02 0.400E-01
   -.379E+02 -.848E+02 0.188E+02   0.409E+02 0.897E+02 -.197E+02   -.302E+01 -.487E+01 0.888E+00   0.480E-02 0.369E-01 0.159E-01
   -.414E+02 0.749E+02 -.374E+02   0.435E+02 -.792E+02 0.406E+02   -.211E+01 0.434E+01 -.324E+01   0.211E-01 -.313E-01 -.360E-02
   -.103E+02 -.186E+02 -.242E+03   0.103E+02 0.186E+02 0.242E+03   0.125E-01 -.470E-02 -.138E-01   0.301E-02 0.703E-02 0.404E-01
   0.162E+01 0.243E+01 0.202E+03   -.162E+01 -.243E+01 -.202E+03   -.448E-03 -.367E-02 0.823E-02   -.675E-03 -.694E-03 -.245E-01
   0.150E+02 -.679E+01 -.212E+03   -.150E+02 0.679E+01 0.212E+03   -.696E-02 -.181E-03 -.315E-02   -.457E-02 0.236E-02 0.280E-01
   0.205E+01 -.163E+02 0.213E+03   -.205E+01 0.163E+02 -.213E+03   -.116E-03 -.225E-02 0.145E-01   -.800E-03 0.640E-02 -.296E-01
   0.115E+02 -.565E+01 0.208E+03   -.115E+02 0.565E+01 -.208E+03   0.458E-02 -.938E-03 0.120E-01   -.455E-02 0.218E-02 -.278E-01
   0.115E+01 -.190E+02 -.216E+03   -.115E+01 0.190E+02 0.216E+03   0.220E-02 0.118E-01 0.361E-02   -.404E-03 0.640E-02 0.299E-01
   0.213E+02 0.794E+00 0.224E+03   -.213E+02 -.803E+00 -.224E+03   0.397E-02 0.658E-02 0.229E-01   -.794E-02 -.391E-03 -.348E-01
   0.797E+00 -.337E+01 0.202E+03   -.799E+00 0.337E+01 -.202E+03   0.437E-03 -.274E-02 0.101E-01   -.440E-03 0.140E-02 -.248E-01
   0.114E+02 0.194E+02 -.227E+03   -.114E+02 -.194E+02 0.227E+03   0.135E-01 0.120E-02 -.221E-01   -.426E-02 -.596E-02 0.358E-01
   0.881E+00 -.445E+01 -.202E+03   -.883E+00 0.445E+01 0.202E+03   0.250E-02 0.298E-02 -.702E-02   -.380E-04 0.137E-02 0.252E-01
   0.148E+02 0.166E+02 0.227E+03   -.148E+02 -.166E+02 -.227E+03   -.140E-01 -.170E-02 -.227E-02   -.526E-02 -.603E-02 -.350E-01
   0.309E+01 0.340E+00 -.202E+03   -.309E+01 -.343E+00 0.202E+03   -.417E-02 0.357E-02 -.628E-02   -.651E-03 -.570E-03 0.249E-01
   0.225E+02 0.348E+01 -.230E+03   -.225E+02 -.347E+01 0.230E+03   -.141E-01 -.150E-01 0.942E-02   -.736E-02 -.134E-02 0.347E-01
   -.520E+01 -.209E+02 0.239E+03   0.520E+01 0.209E+02 -.239E+03   -.460E-02 0.161E-01 -.479E-02   0.217E-02 0.724E-02 -.395E-01
   0.149E+02 -.159E+02 0.229E+03   -.149E+02 0.159E+02 -.229E+03   -.302E-02 -.555E-02 0.255E-01   -.539E-02 0.585E-02 -.368E-01
   -.318E+01 0.844E+01 -.207E+03   0.319E+01 -.844E+01 0.207E+03   -.597E-02 0.627E-02 -.109E-01   0.176E-02 -.369E-02 0.277E-01
   -.216E+02 0.427E+01 -.238E+03   0.216E+02 -.427E+01 0.238E+03   0.130E-01 -.957E-02 -.144E-02   0.743E-02 -.121E-02 0.409E-01
   -.480E+01 0.213E+02 0.237E+03   0.481E+01 -.213E+02 -.237E+03   -.663E-02 -.168E-02 -.596E-03   0.214E-02 -.748E-02 -.373E-01
   -.195E+02 0.726E+00 0.244E+03   0.195E+02 -.733E+00 -.244E+03   -.400E-03 0.596E-02 -.222E-02   0.709E-02 -.455E-03 -.399E-01
   -.768E+01 0.210E+02 -.230E+03   0.768E+01 -.210E+02 0.230E+03   -.519E-02 0.413E-02 -.226E-01   0.160E-02 -.686E-02 0.384E-01
   0.975E+01 0.946E+00 0.255E+03   -.972E+01 -.956E+00 -.255E+03   -.134E-01 0.107E-01 0.129E-01   -.294E-02 -.485E-03 -.453E-01
   -.133E+02 0.962E+01 -.213E+03   0.133E+02 -.962E+01 0.213E+03   -.821E-02 0.153E-02 -.155E-01   0.509E-02 -.427E-02 0.310E-01
   0.376E+01 0.608E+01 -.257E+03   -.377E+01 -.605E+01 0.257E+03   0.159E-01 -.236E-01 -.356E-01   -.211E-02 -.224E-02 0.466E-01
   -.159E+02 0.116E+02 0.218E+03   0.159E+02 -.115E+02 -.218E+03   0.110E-01 -.514E-02 -.580E-02   0.585E-02 -.410E-02 -.301E-01
   0.763E+01 -.988E+01 -.209E+03   -.763E+01 0.987E+01 0.209E+03   -.419E-02 0.706E-02 -.274E-02   -.220E-02 0.297E-02 0.272E-01
   0.148E+02 -.168E+02 -.237E+03   -.148E+02 0.168E+02 0.237E+03   -.209E-02 0.672E-02 0.143E-01   -.485E-02 0.570E-02 0.366E-01
   -.196E+01 -.278E+01 -.203E+03   0.196E+01 0.277E+01 0.203E+03   -.149E-02 0.736E-02 -.711E-02   0.104E-02 0.351E-03 0.256E-01
   0.560E+01 -.621E+01 0.207E+03   -.560E+01 0.621E+01 -.207E+03   0.167E-02 -.650E-02 0.108E-01   -.215E-02 0.271E-02 -.268E-01
   -.386E+01 0.390E+00 0.204E+03   0.386E+01 -.384E+00 -.203E+03   0.267E-02 -.688E-02 0.457E-02   0.137E-02 -.406E-04 -.251E-01
   -.420E+01 0.121E+02 0.209E+03   0.420E+01 -.121E+02 -.209E+03   0.289E-02 -.900E-02 0.267E-02   0.161E-02 -.449E-02 -.271E-01
   -.485E+01 0.355E+01 0.203E+03   0.484E+01 -.354E+01 -.203E+03   0.811E-02 -.117E-02 0.813E-02   0.178E-02 -.120E-02 -.249E-01
   0.854E+00 0.140E+02 -.209E+03   -.853E+00 -.140E+02 0.209E+03   0.280E-03 0.270E-02 -.998E-02   -.912E-03 -.495E-02 0.285E-01
   0.240E+01 0.155E+02 0.211E+03   -.240E+01 -.155E+02 -.211E+03   -.376E-02 -.572E-02 0.727E-02   -.547E-03 -.601E-02 -.280E-01
   0.487E+01 0.540E+01 0.205E+03   -.486E+01 -.539E+01 -.205E+03   -.227E-02 -.173E-02 0.147E-02   -.200E-02 -.212E-02 -.262E-01
   -.738E+01 -.129E+02 -.211E+03   0.737E+01 0.129E+02 0.211E+03   0.585E-02 -.376E-02 -.107E-01   0.216E-02 0.464E-02 0.290E-01
   0.340E+01 0.565E+01 -.205E+03   -.341E+01 -.565E+01 0.205E+03   0.487E-02 0.182E-02 -.159E-01   -.176E-02 -.177E-02 0.267E-01
   -.516E+01 -.131E+02 0.210E+03   0.516E+01 0.131E+02 -.210E+03   -.171E-02 -.131E-02 0.138E-01   0.192E-02 0.493E-02 -.283E-01
   0.108E+02 0.600E+01 0.207E+03   -.108E+02 -.600E+01 -.207E+03   -.625E-05 0.323E-02 0.115E-01   -.449E-02 -.224E-02 -.272E-01
   0.116E+02 0.746E+01 -.208E+03   -.116E+02 -.746E+01 0.208E+03   0.213E-02 -.177E-02 -.924E-02   -.368E-02 -.272E-02 0.277E-01
[...]
   -.443E+01 0.482E+01 0.694E+03   0.443E+01 -.481E+01 -.699E+03   -.350E-03 -.975E-03 0.510E+01   0.165E-02 -.190E-02 -.887E-02
   -.162E+02 0.180E+02 -.280E+03   0.162E+02 -.179E+02 0.285E+03   -.519E-03 -.246E-03 -.509E+01   0.582E-02 -.636E-02 -.430E-01
   0.540E+01 -.116E+00 0.289E+03   -.540E+01 0.115E+00 -.293E+03   -.112E-02 0.260E-02 0.508E+01   -.158E-02 -.116E-02 0.417E-01
   0.168E+01 -.564E-01 -.691E+03   -.168E+01 0.556E-01 0.695E+03   0.113E-02 0.354E-03 -.510E+01   -.588E-03 -.116E-03 0.705E-02
   0.822E+00 0.177E+01 0.691E+03   -.822E+00 -.177E+01 -.696E+03   0.510E-04 -.101E-02 0.510E+01   -.256E-03 -.595E-03 -.770E-02
   0.262E+01 0.555E+01 -.289E+03   -.262E+01 -.555E+01 0.293E+03   -.705E-03 -.199E-02 -.508E+01   -.125E-02 -.148E-02 -.404E-01
   0.302E+02 -.263E+02 0.264E+03   -.301E+02 0.263E+02 -.268E+03   -.744E-02 0.635E-02 0.510E+01   -.998E-02 0.873E-02 0.502E-01
   0.743E+01 -.640E+01 -.699E+03   -.743E+01 0.640E+01 0.703E+03   -.247E-03 -.735E-03 -.510E+01   -.255E-02 0.240E-02 0.949E-02
   0.640E+01 -.531E+01 0.696E+03   -.640E+01 0.530E+01 -.701E+03   0.204E-03 -.132E-03 0.510E+01   -.206E-02 0.197E-02 -.995E-02
   0.242E+02 -.204E+02 -.272E+03   -.242E+02 0.204E+02 0.277E+03   -.328E-02 0.165E-02 -.506E+01   -.102E-01 0.903E-02 -.492E-01
   0.449E+02 -.956E+01 0.196E+03   -.449E+02 0.958E+01 -.201E+03   0.261E-01 -.221E-01 0.519E+01   -.166E-01 0.462E-02 0.744E-01
   0.801E+01 -.158E+01 -.712E+03   -.802E+01 0.158E+01 0.716E+03   0.501E-02 -.369E-03 -.509E+01   -.210E-02 -.251E-03 0.139E-01
   0.157E+01 -.606E+01 -.693E+03   -.157E+01 0.606E+01 0.698E+03   -.153E-03 -.133E-02 -.510E+01   -.560E-03 0.244E-02 0.773E-02
   -.626E+01 -.558E+01 0.288E+03   0.626E+01 0.558E+01 -.293E+03   0.140E-02 0.151E-02 0.507E+01   0.195E-02 0.242E-02 0.431E-01
   -.137E+01 0.173E+01 -.165E+01   0.243E-12 -.551E-12 -.455E-11   0.143E+01 -.181E+01 0.168E+01   -.586E-01 0.739E-01 -.238E-01

 POSITION                                       TOTAL-FORCE (eV/Angst)
      2.99700      5.47874     16.21625         0.001148      0.005211      0.025746
      1.97935      5.93469     15.33401         0.014558     -0.004150      0.012522
      4.04012      6.45103     16.24466         0.010150     -0.001370     -0.030161
      3.66597      7.53228     15.37029        -0.004372     -0.007599      0.013736
      2.37941      7.20416     14.80222         0.005826     -0.012163      0.014482
      3.80593      4.23170     12.79351        -0.000824      0.005579     -0.011023
      4.88491      6.24750     12.37450         0.003959     -0.009032      0.013952
      3.67288      5.51093     12.13571        -0.004866      0.003357     -0.008184
      5.75120      5.43353     13.16125        -0.005407      0.006606     -0.009809
      5.09489      4.19885     13.42465        -0.009945      0.009251     -0.032892
      3.84084      5.80032     14.20492         0.000200      0.007021     -0.020890
      1.80642      7.81751     14.11184        -0.010008      0.002166     -0.017026
      2.82736      5.84374     11.53686         0.008822     -0.000560     -0.008878
      3.07587      3.42637     12.78743        -0.009129     -0.007621     -0.006595
      5.09516      7.25826     12.03335         0.011264      0.008097     -0.009323
      6.71915      5.73543     13.55596         0.001966     -0.007844     -0.003671
      1.07674      5.38814     15.07128        -0.011876     -0.003253     -0.000793
      3.01033      4.51957     16.72952        -0.004057     -0.009066      0.024225
      4.95972      6.37656     16.82001        -0.002624      0.009196     -0.023104
      4.23179      8.44543     15.20377        -0.006396      0.009974     -0.009016
      5.49002      3.38731     14.03159        -0.000982     -0.003509      0.001587
      4.76978      8.26137     21.28500         0.001202      0.002193     -0.006465
     -3.18000     11.01584      7.09500        -0.000703     -0.000267      0.002836
     -1.58959      8.26195     21.28500         0.000352      0.000210     -0.002119
      3.18000     11.01584      7.09500         0.001566      0.004890      0.001888
     -1.59000      8.26188      7.09500         0.001632     -0.000221      0.003463
      3.18023     11.01542     21.28500        -0.000571      0.000901      0.002294
      0.00000      5.50792      7.09500        -0.003528     -0.002983      0.002229
     12.72000      0.00000      7.09500        -0.001614      0.000332      0.002830
      1.58976      2.75393     21.28500         0.001105      0.000480     -0.003559
     12.72003     -0.00009     21.28500         0.000379     -0.000146     -0.001207
      1.59000      2.75396      7.09500         0.003709      0.005196     -0.004088
     -3.18009     11.01592     21.28500         0.000048     -0.000216     -0.001396
      0.00090      5.50810     21.28500        -0.002451     -0.000941      0.005722
      4.77000      8.26188      7.09500        -0.002255     -0.012791     -0.009666
      1.59000      8.26188      7.09500        -0.000755      0.001907      0.003310
      6.35978     -0.00010     21.28500         0.001145      0.000058     -0.003183
      6.35941      5.50823     21.28500         0.003820     -0.001810      0.015971
      4.77000      2.75396      7.09500        -0.000554      0.007493      0.007590
      6.36000      5.50792      7.09500        -0.008784     -0.001164      0.006374
      4.76960      2.75376     21.28500         0.001119      0.001927     -0.000834
      3.18000      5.50792      7.09500         0.010442      0.000758      0.013601
      7.95034      2.75404     21.28500        -0.001980     -0.001963     -0.003002
      3.18033      5.50851     21.28500        -0.000668     -0.003481     -0.030015
      7.95000      2.75396      7.09500        -0.001855      0.002380     -0.000365
      0.00017     11.01550     21.28500        -0.000314     -0.000353     -0.001759
      1.59051      8.26129     21.28500        -0.000170      0.001659      0.004895
      9.54049     -0.00028     21.28500        -0.001157      0.000482     -0.002055
     -0.00000     11.01584      7.09500        -0.000072     -0.000069      0.003085
      9.54000      0.00000      7.09500        -0.001731     -0.000907     -0.000411
      6.36000      0.00000      7.09500         0.001672     -0.002517     -0.000119
     11.13000      2.75396      7.09500         0.002164     -0.000121      0.003322
      3.17992      0.00012     21.28500        -0.000151     -0.000676     -0.000507
      3.18000      0.00000      7.09500         0.002256     -0.000711      0.002736
      0.00000      0.00000      7.09500        -0.000903      0.000394     -0.006490
      6.35985     11.01601     21.28500         0.000684     -0.000654     -0.002071
     -0.00020     -0.00003     21.28500        -0.000000      0.000311     -0.007754
      6.36000     11.01584      7.09500        -0.002692      0.002526      0.001631
     -1.59000      2.75396      7.09500        -0.003007      0.000085      0.001974
     -1.58988      2.75397     21.28500         0.000390     -0.000472     -0.001110
[...]
      7.94991     11.93389     22.88000        -0.000670     -0.000080     -0.586600
      7.95000      0.91799      5.50000        -0.000219      0.000416      0.587595
      7.95000      0.91799      8.69000        -0.001648      0.003961     -0.586206
     -1.58999     11.93350     19.69000         0.001000      0.000324      0.588307
     -1.59015     11.93381     22.88000         0.001420     -0.000570     -0.587956
     -1.59000     11.93383      5.50000        -0.000317      0.000631      0.587147
     -1.59000     11.93383      8.69000        -0.001003      0.001346     -0.587597
      0.00103      9.17906     19.69000        -0.002766      0.002289      0.582500
      0.00043      9.17967     22.88000        -0.000295     -0.000141     -0.585559
      0.00000      9.17987      5.50000         0.000713     -0.000094      0.588280
      0.00000      9.17987      8.69000        -0.001639      0.001139     -0.586664
      1.59041      6.42631     19.69000         0.001499     -0.001887      0.555285
      1.59062      6.42551     22.88000         0.000096      0.001386     -0.579049
      1.59020     11.93372     22.88000         0.000296     -0.001381     -0.587871
      7.95000     11.93383     19.69000        -0.001223      0.000003      0.586918
    total drift:                                0.000173     -0.003696     -0.002494

  FREE ENERGIE OF THE ION-ELECTRON SYSTEM (eV)
  free  energy   TOTEN  =     -1253.26625847 eV

  energy  without entropy=    -1253.14182388  energy(sigma->0) =    -1253.20404117

 d Force = 0.1911243E-04[ 0.140E-05, 0.368E-04]  d Energy = 0.1086435E-03-0.895E-04
 d Force = 0.1457383E+00[ 0.146E+00, 0.146E+00]  d Ewald  = 0.1457384E+00-0.144E-06

 reached required accuracy - stopping structural energy minimisation